 Run started: Thu, 09 Mar 2023 20:09:30 +0000

 ******************************* User Parameters *******************************
iprint                : 2                     # verbosity control (I)
task                  : TransitionStateSearch # type of calculation (S)
randseed              : 5758057               # seed for random numbers (I)
optstrategy           : speed                 # optimization strategy (S)
numfarms              : 5                     # number of task farms (I)
xcfunctional          : RPBE                  # exchange-correlation functional (S)
cutoffenergy          : 900.0000000 ev        # maximum energy of planewaves in basis set (P)
nextrabands           : 112                   # number of extra bands (I)
elecenergytol         : 0.0000005 eV          # total energy per atom convergence tolerance (P)
maxscfcycles          : 360                   # maximum SCF cycles (I)
mixingscheme          : Pulay                 # density mixing scheme (S)
mixhistorylength      : 32                    # number of densities in mixing scheme (I)
mixcutoffenergy       : 500.0000000 eV        # density mixing cut off energy (P)
tssearchmethod        : neb                   # TS search method (S)
tssearchmaxpathpoints : 5                     # max number of path points in NEB search (I)
tssearchenergytol     : 0.0000220 eV          # energy convergence tolerance in NEB search (P)
tssearchnebmethod     : ode12r                # optimization method in NEB search (S)
tssearchnebmaxiter    : 20                    # max steps in NEB search (I)

Initialisation time =     35.29 s
Calculation time    =  21653.18 s
Finalisation time   =      8.81 s
Total time          =  21697.28 s