 Run started: Mon, 10 Oct 2022 15:01:24 +0100

 Atomic calculation performed for Al: 1s2 2s2 2p6 3s2 3p1

 Converged in 52 iterations to an ae energy of -6606.982 eV

   | Pseudopotential Report - Date of generation 10-10-2022   |
   | Element: Al Ionic charge:  3.00 Level of theory: RPBE    |
   | Atomic Solver: Koelling-Harmon                           |
   |               Reference Electronic Structure             |
   |         Orbital         Occupation         Energy        |
   |            3s              2.000           -0.284        |
   |            3p              1.000           -0.100        |
   |                 Pseudopotential Definition               |
   |        Beta     l      e      Rc     scheme   norm       |
   |          1      0   -0.284   2.192     qc      0         |
   |          2      0    0.250   2.192     qc      0         |
   |          3      1   -0.100   2.192     qc      0         |
   |          4      1    0.250   2.192     qc      0         |
   |          5      2    0.000   2.000     qc      0         |
   |          6      2    0.250   2.000     qc      0         |
   |         loc     3    0.000   2.192     pn      0         |
   | Augmentation charge Rinner = 1.398                       |
   | Partial core correction Rc = 1.398                       |
   | "3|2.2|2.2|1.4|4|5|5|30:31:32U2U2"                       |
   |      Author: Chris J. Pickard, Cambridge University      |

 Atomic calculation performed for Ni: 1s2 2s2 2p6 3s2 3p6 3d8 4s2

 Converged in 109 iterations to an ae energy of -41381.414 eV

   | Pseudopotential Report - Date of generation 10-10-2022   |
   | Element: Ni Ionic charge: 10.00 Level of theory: RPBE    |
   | Atomic Solver: Koelling-Harmon                           |
   |               Reference Electronic Structure             |
   |         Orbital         Occupation         Energy        |
   |            3d              8.000           -0.324        |
   |            4s              2.000           -0.204        |
   |                 Pseudopotential Definition               |
   |        Beta     l      e      Rc     scheme   norm       |
   |          1      0   -0.204   2.401     qc      0         |
   |          2      0    0.250   2.401     qc      0         |
   |          3      1    0.000   2.401     qc      0         |
   |          4      1    0.250   2.401     qc      0         |
   |          5      2   -0.324   1.999     qc      0         |
   |          6      2    0.250   1.999     qc      0         |
   |         loc     3    0.000   2.401     pn      0         |
   | Augmentation charge Rinner = 1.001                       |
   | Partial core correction Rc = 1.001                       |
   | "3|2.4|2.4|1.0|8|9|10|40:41:32U2U2(qc=5.5)"              |
   |      Author: Chris J. Pickard, Cambridge University      |

 Pseudo atomic calculation performed for Al 3s2 3p1

 Converged in 13 iterations to a total energy of -107.6592 eV

 Pseudo atomic calculation performed for Ni 3d8 4s2

 Converged in 41 iterations to a total energy of -1369.7890 eV
 Calculation parallelised over 48 processes.
 Data is distributed by G-vector(48-way)

 ************************************ Title ************************************

 ***************************** General Parameters ******************************

 output verbosity                               : normal  (1)
 write checkpoint data to                       : castep.check
 type of calculation                            : geometry optimization
 stress calculation                             : off
 density difference calculation                 : off
 electron localisation func (ELF) calculation   : off
 Hirshfeld analysis                             : off
 molecular orbital projected DOS                : off
 deltaSCF calculation                           : off
 unlimited duration calculation
 timing information                             : on
 write extra output files                       : on
 write final potential to formatted file        : off
 write final density to formatted file          : off
 write BibTeX reference list                    : on
 write OTFG pseudopotential files               : on
 write electrostatic potential file             : on
 write bands file                               : on
 checkpoint writing                             : both castep_bin and check files

 output         length unit                     : A
 output           mass unit                     : amu
 output           time unit                     : ps
 output         charge unit                     : e
 output           spin unit                     : hbar/2
 output         energy unit                     : eV
 output          force unit                     : eV/A
 output       velocity unit                     : A/ps
 output       pressure unit                     : GPa
 output     inv_length unit                     : 1/A
 output      frequency unit                     : cm-1
 output force constant unit                     : eV/A**2
 output         volume unit                     : A**3
 output   IR intensity unit                     : (D/A)**2/amu
 output         dipole unit                     : D
 output         efield unit                     : eV/A/e
 output        entropy unit                     : J/mol/K
 output    efield chi2 unit                     : pm/V

 wavefunctions paging                           : none
 random number generator seed                   : randomised (150124544)
 data distribution                              : optimal for this architecture
 optimization strategy                          : maximize speed(+++)

 *********************** Exchange-Correlation Parameters ***********************

 using functional                               : revised Perdew Burke Ernzerhof
 relativistic treatment                         : Koelling-Harmon
 DFT+D: Semi-empirical dispersion correction    : off

 ************************* Pseudopotential Parameters **************************

 pseudopotential representation                 : reciprocal space
 <beta|phi> representation                      : reciprocal space
 spin-orbit coupling                            : off

 **************************** Basis Set Parameters *****************************

 plane wave basis set cut-off                   :   900.0000   eV
 size of standard grid                          :     1.7500
 size of   fine   gmax                          :    26.8966   1/A
 finite basis set correction                    : automatic
 number of sample energies                      :          3
           sample  spacing                      :     5.0000   eV

 **************************** Electronic Parameters ****************************

 number of  electrons                           :  2112.
 net charge of system                           :  0.000
 treating system as non-spin-polarized
 number of bands                                :       1168

 ********************* Electronic Minimization Parameters **********************

 Method: Treating system as metallic with density mixing treatment of electrons,
         and number of  SD  steps               :          1
         and number of  CG  steps               :          4

 total energy / atom convergence tol.           : 0.1000E-05   eV
 eigen-energy convergence tolerance             : 0.2192E-06   eV
 max force / atom convergence tol.              : ignored
 convergence tolerance window                   :          3   cycles
 max. number of SCF cycles                      :        360
 number of fixed-spin iterations                :         10
 smearing scheme                                : Gaussian
 smearing width                                 : 0.2000       eV
 Fermi energy convergence tolerance             : 0.2721E-13   eV
 periodic dipole correction                     : NONE

 ************************** Density Mixing Parameters **************************

 density-mixing scheme                          : Pulay
 max. length of mixing history                  :         20
 charge density mixing amplitude                : 0.8000
 cut-off energy for mixing                      :  900.0       eV

 *********************** Population Analysis Parameters ************************

 Population analysis with cutoff                :  3.000       A
 Population analysis output                     : summary and pdos components

 ********************** Geometry Optimization Parameters ***********************

 optimization method                            : LBFGS
 max. no. of LBFGS updates                      : unbounded
 preconditioned LBFGS is activated
 preconditioner type                            : EXP
     stabilization constant                     :     0.1000
     parameter A                                :     3.0000
     nearest neighbor distance                  : automatic
     cut-off distance                           : automatic
     parameter mu                               : automatic
 variable cell method                           : fixed basis quality
 max. number of steps                           :         30
 estimated bulk modulus                         :  500.0       GPa
 estimated <frequency>                          :  1668.       cm-1
 geom line minimiser                            : on
 with line minimiser tolerance                  :     0.4000
 total energy convergence tolerance             : 0.2000E-04   eV/atom
        max ionic |force| tolerance             : 0.5000E-01   eV/A
 max ionic |displacement| tolerance             : 0.1000E-02   A
   max |stress component| tolerance             : 0.1000       GPa
 convergence tolerance window                   :          2   steps
 backup results every                           :          5   steps
 write geom trajectory file                     : on

                                      Unit Cell
        Real Lattice(A)                      Reciprocal Lattice(1/A)
    14.4528000     0.0000000     0.0000000        0.434738273   0.000000000   0.000000000
     0.0000000    14.4528000     0.0000000        0.000000000   0.434738273   0.000000000
     0.0000000     0.0000000    14.4528000        0.000000000   0.000000000   0.434738273

                       Lattice parameters(A)       Cell Angles
                    a =     14.452800          alpha =   90.000000
                    b =     14.452800          beta  =   90.000000
                    c =     14.452800          gamma =   90.000000

                       Current cell volume =          3018.950406       A**3
                                   density =             4.304791   AMU/A**3
                                           =             7.148274     g/cm^3

                                     Cell Contents
                         Total number of ions in cell =  256
                      Total number of species in cell =    2
                        Max number of any one species =  192

            x  Element    Atom        Fractional coordinates of atoms  x
            x            Number           u          v          w      x
[...]
     Ni   177      Py                   0.334
     Ni   177      Pz                   0.298
     Ni   178      Dzz                  1.827
     Ni   178      Dzy                  1.707
     Ni   178      Dzx                  1.653
     Ni   178      Dxx-yy               1.786
     Ni   178      Dxy                  1.759
     Ni   178      S                    0.382
     Ni   178      Px                   0.295
     Ni   178      Py                   0.280
     Ni   178      Pz                   0.301
     Ni   179      Dzz                  1.823
     Ni   179      Dzy                  1.683
     Ni   179      Dzx                  1.712
     Ni   179      Dxx-yy               1.788
     Ni   179      Dxy                  1.731
     Ni   179      S                    0.388
     Ni   179      Px                   0.287
     Ni   179      Py                   0.306
     Ni   179      Pz                   0.293
     Ni   180      Dzz                  1.834
     Ni   180      Dzy                  1.745
     Ni   180      Dzx                  1.672
     Ni   180      Dxx-yy               1.823
     Ni   180      Dxy                  1.740
     Ni   180      S                    0.424
     Ni   180      Px                   0.312
     Ni   180      Py                   0.279
     Ni   180      Pz                   0.298
     Ni   181      Dzz                  1.833
     Ni   181      Dzy                  1.712
     Ni   181      Dzx                  1.681
     Ni   181      Dxx-yy               1.782
     Ni   181      Dxy                  1.761
     Ni   181      S                    0.398
     Ni   181      Px                   0.285
     Ni   181      Py                   0.271
     Ni   181      Pz                   0.322
     Ni   182      Dzz                  1.833
     Ni   182      Dzy                  1.728
     Ni   182      Dzx                  1.717
     Ni   182      Dxx-yy               1.826
     Ni   182      Dxy                  1.730
     Ni   182      S                    0.421
     Ni   182      Px                   0.287
     Ni   182      Py                   0.265
     Ni   182      Pz                   0.292
     Ni   183      Dzz                  1.787
     Ni   183      Dzy                  1.694
     Ni   183      Dzx                  1.752
     Ni   183      Dxx-yy               1.818
     Ni   183      Dxy                  1.689
     Ni   183      S                    0.412
     Ni   183      Px                   0.288
     Ni   183      Py                   0.338
     Ni   183      Pz                   0.285
     Ni   184      Dzz                  1.794
     Ni   184      Dzy                  1.752
     Ni   184      Dzx                  1.686
     Ni   184      Dxx-yy               1.811
     Ni   184      Dxy                  1.699
     Ni   184      S                    0.405
     Ni   184      Px                   0.339
     Ni   184      Py                   0.286
     Ni   184      Pz                   0.289
     Ni   185      Dzz                  1.847
     Ni   185      Dzy                  1.701
     Ni   185      Dzx                  1.700
     Ni   185      Dxx-yy               1.796
     Ni   185      Dxy                  1.769
     Ni   185      S                    0.425
     Ni   185      Px                   0.289
     Ni   185      Py                   0.277
     Ni   185      Pz                   0.329
     Ni   186      Dzz                  1.773
     Ni   186      Dzy                  1.715
     Ni   186      Dzx                  1.763
     Ni   186      Dxx-yy               1.842
     Ni   186      Dxy                  1.662
     Ni   186      S                    0.410
     Ni   186      Px                   0.286
     Ni   186      Py                   0.315
     Ni   186      Pz                   0.267
     Ni   187      Dzz                  1.820
     Ni   187      Dzy                  1.710
     Ni   187      Dzx                  1.701
     Ni   187      Dxx-yy               1.799
     Ni   187      Dxy                  1.700
     Ni   187      S                    0.403
     Ni   187      Px                   0.305
     Ni   187      Py                   0.283
     Ni   187      Pz                   0.305
     Ni   188      Dzz                  1.850
     Ni   188      Dzy                  1.660
     Ni   188      Dzx                  1.734
     Ni   188      Dxx-yy               1.791
     Ni   188      Dxy                  1.772
     Ni   188      S                    0.409
     Ni   188      Px                   0.244
     Ni   188      Py                   0.294
     Ni   188      Pz                   0.313
     Ni   189      Dzz                  1.843
     Ni   189      Dzy                  1.695
     Ni   189      Dzx                  1.751
     Ni   189      Dxx-yy               1.810
     Ni   189      Dxy                  1.761
     Ni   189      S                    0.434
     Ni   189      Px                   0.258
     Ni   189      Py                   0.304
     Ni   189      Pz                   0.296
     Ni   190      Dzz                  1.817
     Ni   190      Dzy                  1.674
     Ni   190      Dzx                  1.746
     Ni   190      Dxx-yy               1.798
     Ni   190      Dxy                  1.727
     Ni   190      S                    0.391
     Ni   190      Px                   0.271
     Ni   190      Py                   0.315
     Ni   190      Pz                   0.277
     Ni   191      Dzz                  1.812
     Ni   191      Dzy                  1.737
     Ni   191      Dzx                  1.699
     Ni   191      Dxx-yy               1.801
     Ni   191      Dxy                  1.705
     Ni   191      S                    0.383
     Ni   191      Px                   0.309
     Ni   191      Py                   0.287
     Ni   191      Pz                   0.308
     Ni   192      Dzz                  1.842
     Ni   192      Dzy                  1.702
     Ni   192      Dzx                  1.737
     Ni   192      Dxx-yy               1.790
     Ni   192      Dxy                  1.768
     Ni   192      S                    0.408
     Ni   192      Px                   0.261
     Ni   192      Py                   0.291
     Ni   192      Pz                   0.298
                           Total:    2112.000

     Atomic Populations (Mulliken)
Species          Ion     s      p      d      f     Total  Charge (e)
  Al              1     0.85   1.93   0.00   0.00   2.78     0.22
  Al              2     0.85   1.92   0.00   0.00   2.78     0.22
  Al              3     0.87   1.96   0.00   0.00   2.82     0.18
  Al              4     0.88   1.99   0.00   0.00   2.87     0.13
  Al              5     0.87   1.97   0.00   0.00   2.84     0.16
  Al              6     0.85   1.92   0.00   0.00   2.77     0.23
  Al              7     0.88   1.97   0.00   0.00   2.85     0.15
  Al              8     0.88   1.97   0.00   0.00   2.85     0.15
  Al              9     0.88   1.98   0.00   0.00   2.87     0.13
  Al             10     0.87   1.96   0.00   0.00   2.83     0.17
  Al             11     0.84   1.91   0.00   0.00   2.75     0.25
  Al             12     0.88   1.97   0.00   0.00   2.86     0.14
  Al             13     0.88   1.95   0.00   0.00   2.83     0.17
  Al             14     0.86   1.93   0.00   0.00   2.79     0.21
  Al             15     0.89   1.97   0.00   0.00   2.85     0.15
  Al             16     0.87   1.96   0.00   0.00   2.83     0.17
  Al             17     0.85   1.92   0.00   0.00   2.77     0.23
  Al             18     0.87   1.97   0.00   0.00   2.84     0.16
  Al             19     0.86   1.95   0.00   0.00   2.81     0.19
  Al             20     0.86   1.92   0.00   0.00   2.77     0.23
  Al             21     0.86   1.94   0.00   0.00   2.80     0.20
  Al             22     0.87   1.97   0.00   0.00   2.84     0.16
  Al             23     0.86   1.94   0.00   0.00   2.79     0.21
  Al             24     0.87   1.95   0.00   0.00   2.82     0.18
  Al             25     0.88   1.96   0.00   0.00   2.84     0.16
  Al             26     0.86   1.97   0.00   0.00   2.83     0.17
  Al             27     0.89   1.95   0.00   0.00   2.84     0.16
  Al             28     0.86   1.96   0.00   0.00   2.82     0.18
  Al             29     0.86   1.96   0.00   0.00   2.82     0.18
  Al             30     0.88   2.00   0.00   0.00   2.88     0.12
  Al             31     0.88   2.00   0.00   0.00   2.88     0.12
  Al             32     0.88   2.00   0.00   0.00   2.88     0.12
  Al             33     0.88   2.01   0.00   0.00   2.88     0.12
  Al             34     0.87   1.98   0.00   0.00   2.85     0.15
  Al             35     0.88   1.99   0.00   0.00   2.87     0.13
  Al             36     0.86   1.94   0.00   0.00   2.81     0.19
  Al             37     0.92   2.00   0.00   0.00   2.93     0.07
  Al             38     0.87   1.94   0.00   0.00   2.81     0.19
  Al             39     0.87   1.94   0.00   0.00   2.81     0.19
  Al             40     0.85   1.92   0.00   0.00   2.77     0.23
  Al             41     0.86   1.93   0.00   0.00   2.79     0.21
  Al             42     0.88   1.92   0.00   0.00   2.80     0.20
  Al             43     0.89   1.94   0.00   0.00   2.84     0.16
  Al             44     0.89   1.95   0.00   0.00   2.84     0.16
  Al             45     0.87   1.95   0.00   0.00   2.82     0.18
  Al             46     0.92   1.98   0.00   0.00   2.89     0.11
  Al             47     0.89   1.94   0.00   0.00   2.83     0.17
  Al             48     0.87   1.96   0.00   0.00   2.82     0.18
  Al             49     0.86   1.96   0.00   0.00   2.82     0.18
  Al             50     0.88   1.96   0.00   0.00   2.83     0.17
  Al             51     0.87   1.95   0.00   0.00   2.82     0.18
  Al             52     0.87   1.97   0.00   0.00   2.84     0.16
  Al             53     0.86   1.97   0.00   0.00   2.84     0.16
  Al             54     0.88   1.98   0.00   0.00   2.86     0.14
  Al             55     0.85   1.94   0.00   0.00   2.78     0.22
  Al             56     0.87   1.89   0.00   0.00   2.76     0.24
  Al             57     0.86   1.93   0.00   0.00   2.79     0.21
  Al             58     0.89   1.96   0.00   0.00   2.85     0.15
  Al             59     0.86   1.92   0.00   0.00   2.78     0.22
  Al             60     0.86   1.96   0.00   0.00   2.83     0.17
[...]
  Ni            178     0.38   0.88   8.73   0.00   9.99     0.01
  Ni            179     0.39   0.89   8.74   0.00  10.01    -0.01
  Ni            180     0.42   0.89   8.81   0.00  10.13    -0.13
  Ni            181     0.40   0.88   8.77   0.00  10.05    -0.05
  Ni            182     0.42   0.84   8.83   0.00  10.10    -0.10
  Ni            183     0.41   0.91   8.74   0.00  10.06    -0.06
  Ni            184     0.41   0.91   8.74   0.00  10.06    -0.06
  Ni            185     0.42   0.89   8.81   0.00  10.13    -0.13
  Ni            186     0.41   0.87   8.75   0.00  10.03    -0.03
  Ni            187     0.40   0.89   8.73   0.00  10.03    -0.03
  Ni            188     0.41   0.85   8.81   0.00  10.07    -0.07
  Ni            189     0.43   0.86   8.86   0.00  10.15    -0.15
  Ni            190     0.39   0.86   8.76   0.00  10.01    -0.01
  Ni            191     0.38   0.90   8.75   0.00  10.04    -0.04
  Ni            192     0.41   0.85   8.84   0.00  10.10    -0.10

                 Bond                   Population      Length (A)
             Al 56 -- Ni 54                  0.24        2.37319
             Al 50 -- Ni 65                  0.19        2.38138
             Al 35 -- Ni 106                 0.23        2.38171
             Al 44 -- Ni 132                 0.22        2.38985
             Al 61 -- Ni 19                  0.21        2.39539
             Al 8  -- Ni 31                  0.21        2.39628
             Al 38 -- Ni 65                  0.23        2.39813
             Al 47 -- Ni 116                 0.18        2.40111
             Al 58 -- Ni 37                  0.21        2.40147
             Al 61 -- Ni 27                  0.22        2.40160
             Al 58 -- Ni 33                  0.20        2.40461
             Al 45 -- Ni 68                  0.21        2.40883
             Al 13 -- Ni 176                 0.19        2.40927
             Al 1  -- Ni 191                 0.27        2.40972
             Al 25 -- Ni 136                 0.20        2.41026
             Al 59 -- Ni 30                  0.21        2.41329
             Al 10 -- Ni 181                 0.19        2.41921
             Al 43 -- Ni 89                  0.19        2.41964
             Al 48 -- Ni 90                  0.21        2.42035
             Al 46 -- Ni 84                  0.26        2.42295
             Al 43 -- Ni 86                  0.20        2.42303
             Al 15 -- Ni 28                  0.19        2.42489
             Al 24 -- Ni 142                 0.19        2.42577
             Al 29 -- Ni 116                 0.24        2.42603
             Al 12 -- Ni 175                 0.20        2.42879
             Al 50 -- Ni 99                  0.25        2.42916
             Al 53 -- Ni 17                  0.19        2.43146
             Al 61 -- Ni 16                  0.20        2.43169
             Al 9  -- Ni 54                  0.20        2.43286
             Al 37 -- Ni 49                  0.28        2.43286
             Al 45 -- Ni 29                  0.24        2.43379
             Al 42 -- Ni 76                  0.18        2.43473
             Al 31 -- Ni 70                  0.22        2.43477
             Al 42 -- Ni 23                  0.20        2.43503
             Al 19 -- Ni 165                 0.24        2.43570
             Al 28 -- Ni 119                 0.24        2.43609
             Al 47 -- Ni 74                  0.22        2.43772
             Al 59 -- Ni 33                  0.20        2.43995
             Al 15 -- Ni 24                  0.18        2.44007
             Al 58 -- Ni 36                  0.23        2.44063
             Al 4  -- Ni 47                  0.20        2.44077
             Al 35 -- Ni 109                 0.22        2.44085
             Al 24 -- Ni 138                 0.22        2.44102
             Al 59 -- Ni 48                  0.20        2.44141
             Al 20 -- Ni 147                 0.19        2.44160
             Al 13 -- Ni 184                 0.20        2.44179
             Al 43 -- Ni 38                  0.20        2.44219
             Al 25 -- Ni 123                 0.19        2.44244
             Al 33 -- Ni 111                 0.20        2.44396
             Al 3  -- Ni 51                  0.19        2.44497
             Al 45 -- Ni 70                  0.19        2.44593
             Al 20 -- Ni 139                 0.22        2.44600
             Al 16 -- Ni 171                 0.20        2.44654
             Al 10 -- Ni 179                 0.21        2.44679
             Al 56 -- Ni 50                  0.21        2.44689
             Al 33 -- Ni 112                 0.22        2.44696
             Al 36 -- Ni 111                 0.25        2.44741
             Al 50 -- Ni 97                  0.22        2.44742
             Al 14 -- Ni 111                 0.21        2.44755
             Al 39 -- Ni 58                  0.22        2.44761
[...]
             Al 20 -- Al 41                  0.15        2.82848
             Al 42 -- Al 43                  0.19        2.83216
             Al 44 -- Al 46                  0.25        2.83383
             Al 56 -- Al 58                  0.14        2.83539
             Al 48 -- Al 59                  0.16        2.83748
             Al 43 -- Al 56                  0.15        2.83884
             Al 7  -- Al 8                   0.10        2.84230
             Al 37 -- Al 43                  0.25        2.84876
             Al 13 -- Al 27                  0.12        2.88353
             Al 42 -- Al 46                  0.22        2.88625
             Al 9  -- Al 10                  0.11        2.88680
             Al 43 -- Al 58                  0.21        2.89406
             Al 45 -- Al 59                  0.09        2.93171
             Al 12 -- Al 25                  0.08        2.97121
             Al 42 -- Al 44                  0.16        2.98250

Writing analysis data to castep.castep_bin

Writing model to castep.check

 A BibTeX formatted list of references used in this run has been written to
 castep.bib

Initialisation time =     15.60 s
Calculation time    =  27060.44 s
Finalisation time   =      2.58 s
Total time          =  27078.63 s

Overall parallel efficiency rating: Good (77%)

Data was distributed by:-
G-vector (48-way); efficiency rating: Good (78%)