 Run started: Thu, 09 Mar 2023 16:07:25 +0000

 Atomic calculation performed for Al: 1s2 2s2 2p6 3s2 3p1

 Converged in 52 iterations to an ae energy of -6606.982 eV

   | Pseudopotential Report - Date of generation  9-03-2023   |
   | Element: Al Ionic charge:  3.00 Level of theory: RPBE    |
   | Atomic Solver: Koelling-Harmon                           |
   |               Reference Electronic Structure             |
   |         Orbital         Occupation         Energy        |
   |            3s              2.000           -0.284        |
   |            3p              1.000           -0.100        |
   |                 Pseudopotential Definition               |
   |        Beta     l      e      Rc     scheme   norm       |
   |          1      0   -0.284   2.192     qc      0         |
   |          2      0    0.250   2.192     qc      0         |
   |          3      1   -0.100   2.192     qc      0         |
   |          4      1    0.250   2.192     qc      0         |
   |          5      2    0.000   2.000     qc      0         |
   |          6      2    0.250   2.000     qc      0         |
   |         loc     3    0.000   2.192     pn      0         |
   | Augmentation charge Rinner = 1.398                       |
   | Partial core correction Rc = 1.398                       |
   | "3|2.2|2.2|1.4|4|5|5|30:31:32U2U2"                       |
   |      Author: Chris J. Pickard, Cambridge University      |

 Atomic calculation performed for Ni: 1s2 2s2 2p6 3s2 3p6 3d8 4s2

 Converged in 109 iterations to an ae energy of -41381.414 eV

   | Pseudopotential Report - Date of generation  9-03-2023   |
   | Element: Ni Ionic charge: 10.00 Level of theory: RPBE    |
   | Atomic Solver: Koelling-Harmon                           |
   |               Reference Electronic Structure             |
   |         Orbital         Occupation         Energy        |
   |            3d              8.000           -0.324        |
   |            4s              2.000           -0.204        |
   |                 Pseudopotential Definition               |
   |        Beta     l      e      Rc     scheme   norm       |
   |          1      0   -0.204   2.401     qc      0         |
   |          2      0    0.250   2.401     qc      0         |
   |          3      1    0.000   2.401     qc      0         |
   |          4      1    0.250   2.401     qc      0         |
   |          5      2   -0.324   1.999     qc      0         |
   |          6      2    0.250   1.999     qc      0         |
   |         loc     3    0.000   2.401     pn      0         |
   | Augmentation charge Rinner = 1.001                       |
   | Partial core correction Rc = 1.001                       |
   | "3|2.4|2.4|1.0|8|9|10|40:41:32U2U2(qc=5.5)"              |
   |      Author: Chris J. Pickard, Cambridge University      |

 Pseudo atomic calculation performed for Al 3s2 3p1

 Converged in 13 iterations to a total energy of -107.6592 eV

 Pseudo atomic calculation performed for Ni 3d8 4s2

 Converged in 41 iterations to a total energy of -1369.7891 eV
 Calculation parallelised over 48 processes.
 Data is distributed by G-vector(48-way)

 ************************************ Title ************************************

 ***************************** General Parameters ******************************

 output verbosity                               : normal  (1)
 write checkpoint data to                       : castep.check
 type of calculation                            : geometry optimization
 stress calculation                             : off
 density difference calculation                 : off
 electron localisation func (ELF) calculation   : off
 Hirshfeld analysis                             : off
 molecular orbital projected DOS                : off
 deltaSCF calculation                           : off
 unlimited duration calculation
 timing information                             : on
 write extra output files                       : on
 write final potential to formatted file        : off
 write final density to formatted file          : off
 write BibTeX reference list                    : on
 write OTFG pseudopotential files               : on
 write electrostatic potential file             : on
 write bands file                               : on
 checkpoint writing                             : both castep_bin and check files

 output         length unit                     : A
 output           mass unit                     : amu
 output           time unit                     : ps
 output         charge unit                     : e
 output           spin unit                     : hbar/2
 output         energy unit                     : eV
 output          force unit                     : eV/A
 output       velocity unit                     : A/ps
 output       pressure unit                     : GPa
 output     inv_length unit                     : 1/A
 output      frequency unit                     : cm-1
 output force constant unit                     : eV/A**2
 output         volume unit                     : A**3
 output   IR intensity unit                     : (D/A)**2/amu
 output         dipole unit                     : D
 output         efield unit                     : eV/A/e
 output        entropy unit                     : J/mol/K
 output    efield chi2 unit                     : pm/V

 wavefunctions paging                           : none
 random number generator seed                   : randomised (160725154)
 data distribution                              : optimal for this architecture
 optimization strategy                          : maximize speed(+++)

 *********************** Exchange-Correlation Parameters ***********************

 using functional                               : revised Perdew Burke Ernzerhof
 relativistic treatment                         : Koelling-Harmon
 DFT+D: Semi-empirical dispersion correction    : off

 ************************* Pseudopotential Parameters **************************

 pseudopotential representation                 : reciprocal space
 <beta|phi> representation                      : reciprocal space
 spin-orbit coupling                            : off

 **************************** Basis Set Parameters *****************************

 plane wave basis set cut-off                   :   900.0000   eV
 size of standard grid                          :     1.7500
 size of   fine   gmax                          :    26.8966   1/A
 finite basis set correction                    : none

 **************************** Electronic Parameters ****************************

 number of  electrons                           :  2046.
 net charge of system                           :  0.000
 treating system as non-spin-polarized
 number of bands                                :       1135

 ********************* Electronic Minimization Parameters **********************

 Method: Treating system as metallic with density mixing treatment of electrons,
         and number of  SD  steps               :          1
         and number of  CG  steps               :          4

 total energy / atom convergence tol.           : 0.1000E-05   eV
 eigen-energy convergence tolerance             : 0.2247E-06   eV
 max force / atom convergence tol.              : ignored
 convergence tolerance window                   :          3   cycles
 max. number of SCF cycles                      :        200
 number of fixed-spin iterations                :         10
 smearing scheme                                : Gaussian
 smearing width                                 : 0.2000       eV
 Fermi energy convergence tolerance             : 0.2721E-13   eV
 periodic dipole correction                     : NONE
 periodically dump wavefunctions to             : castep.wvfn
 dump wavefunctions every                       :          1   SCF cycles

 ************************** Density Mixing Parameters **************************

 density-mixing scheme                          : Pulay
 max. length of mixing history                  :         20
 charge density mixing amplitude                : 0.8000
 cut-off energy for mixing                      :  900.0       eV

 *********************** Population Analysis Parameters ************************

 Population analysis with cutoff                :  3.000       A
 Population analysis output                     : summary and pdos components

 ********************** Geometry Optimization Parameters ***********************

 optimization method                            : LBFGS
 max. no. of LBFGS updates                      : unbounded
 variable cell method                           : fixed basis quality
 max. number of steps                           :         30
 estimated bulk modulus                         :  500.0       GPa
 estimated <frequency>                          :  1668.       cm-1
 geom line minimiser                            : on
 with line minimiser tolerance                  :     0.4000
 total energy convergence tolerance             : 0.2000E-04   eV/atom
        max ionic |force| tolerance             : 0.5000E-01   eV/A
 max ionic |displacement| tolerance             : 0.1000E-02   A
   max |stress component| tolerance             : 0.1000       GPa
 convergence tolerance window                   :          2   steps
 backup results every                           :          5   steps
 write geom trajectory file                     : on

                                      Unit Cell
        Real Lattice(A)                      Reciprocal Lattice(1/A)
    14.4648280     0.0000000     0.0000000        0.434376773   0.000000000   0.000000000
     0.0000000    14.4648280     0.0000000        0.000000000   0.434376773   0.000000000
     0.0000000     0.0000000    14.4648280        0.000000000   0.000000000   0.434376773

                       Lattice parameters(A)       Cell Angles
                    a =     14.464828          alpha =   90.000000
                    b =     14.464828          beta  =   90.000000
                    c =     14.464828          gamma =   90.000000

                       Current cell volume =          3026.494030       A**3
                                   density =             4.190844   AMU/A**3
                                           =             6.959059     g/cm^3

                                     Cell Contents
                         Total number of ions in cell =  255
                      Total number of species in cell =    2
                        Max number of any one species =  183

            x  Element    Atom        Fractional coordinates of atoms  x
            x            Number           u          v          w      x
            x  Al           1         0.942988   0.187774   0.562359   x
            x  Al           2         0.942054   0.439584   0.562215   x
            x  Al           3         0.946780   0.689087   0.556420   x
            x  Al           4         0.943451   0.937120   0.561320   x
            x  Al           5         0.941590   0.185911   0.810653   x
[...]
     Ni   168      Py                   0.319
     Ni   168      Pz                   0.279
     Ni   169      Dzz                  1.853
     Ni   169      Dzy                  1.754
     Ni   169      Dzx                  1.674
     Ni   169      Dxx-yy               1.780
     Ni   169      Dxy                  1.789
     Ni   169      S                    0.406
     Ni   169      Px                   0.290
     Ni   169      Py                   0.240
     Ni   169      Pz                   0.317
     Ni   170      Dzz                  1.849
     Ni   170      Dzy                  1.727
     Ni   170      Dzx                  1.672
     Ni   170      Dxx-yy               1.779
     Ni   170      Dxy                  1.771
     Ni   170      S                    0.405
     Ni   170      Px                   0.291
     Ni   170      Py                   0.263
     Ni   170      Pz                   0.330
     Ni   171      Dzz                  1.789
     Ni   171      Dzy                  1.786
     Ni   171      Dzx                  1.724
     Ni   171      Dxx-yy               1.839
     Ni   171      Dxy                  1.689
     Ni   171      S                    0.448
     Ni   171      Px                   0.306
     Ni   171      Py                   0.256
     Ni   171      Pz                   0.212
     Ni   172      Dzz                  1.792
     Ni   172      Dzy                  1.705
     Ni   172      Dzx                  1.739
     Ni   172      Dxx-yy               1.816
     Ni   172      Dxy                  1.709
     Ni   172      S                    0.412
     Ni   172      Px                   0.309
     Ni   172      Py                   0.324
     Ni   172      Pz                   0.283
     Ni   173      Dzz                  1.843
     Ni   173      Dzy                  1.718
     Ni   173      Dzx                  1.679
     Ni   173      Dxx-yy               1.781
     Ni   173      Dxy                  1.765
     Ni   173      S                    0.414
     Ni   173      Px                   0.288
     Ni   173      Py                   0.271
     Ni   173      Pz                   0.329
     Ni   174      Dzz                  1.816
     Ni   174      Dzy                  1.705
     Ni   174      Dzx                  1.711
     Ni   174      Dxx-yy               1.809
     Ni   174      Dxy                  1.715
     Ni   174      S                    0.388
     Ni   174      Px                   0.292
     Ni   174      Py                   0.294
     Ni   174      Pz                   0.285
     Ni   175      Dzz                  1.833
     Ni   175      Dzy                  1.665
     Ni   175      Dzx                  1.760
     Ni   175      Dxx-yy               1.792
     Ni   175      Dxy                  1.746
     Ni   175      S                    0.399
     Ni   175      Px                   0.254
     Ni   175      Py                   0.304
     Ni   175      Pz                   0.309
     Ni   176      Dzz                  1.831
     Ni   176      Dzy                  1.665
     Ni   176      Dzx                  1.730
     Ni   176      Dxx-yy               1.777
     Ni   176      Dxy                  1.759
     Ni   176      S                    0.407
     Ni   176      Px                   0.271
     Ni   176      Py                   0.299
     Ni   176      Pz                   0.321
     Ni   177      Dzz                  1.810
     Ni   177      Dzy                  1.770
     Ni   177      Dzx                  1.683
     Ni   177      Dxx-yy               1.812
     Ni   177      Dxy                  1.725
     Ni   177      S                    0.419
     Ni   177      Px                   0.337
     Ni   177      Py                   0.277
     Ni   177      Pz                   0.292
     Ni   178      Dzz                  1.840
     Ni   178      Dzy                  1.753
     Ni   178      Dzx                  1.677
     Ni   178      Dxx-yy               1.777
     Ni   178      Dxy                  1.770
     Ni   178      S                    0.418
     Ni   178      Px                   0.300
     Ni   178      Py                   0.259
     Ni   178      Pz                   0.309
     Ni   179      Dzz                  1.836
     Ni   179      Dzy                  1.719
     Ni   179      Dzx                  1.675
     Ni   179      Dxx-yy               1.785
     Ni   179      Dxy                  1.753
     Ni   179      S                    0.399
     Ni   179      Px                   0.299
     Ni   179      Py                   0.280
     Ni   179      Pz                   0.321
     Ni   180      Dzz                  1.786
     Ni   180      Dzy                  1.710
     Ni   180      Dzx                  1.770
     Ni   180      Dxx-yy               1.824
     Ni   180      Dxy                  1.698
     Ni   180      S                    0.412
     Ni   180      Px                   0.296
     Ni   180      Py                   0.338
     Ni   180      Pz                   0.264
     Ni   181      Dzz                  1.839
     Ni   181      Dzy                  1.737
     Ni   181      Dzx                  1.646
     Ni   181      Dxx-yy               1.785
     Ni   181      Dxy                  1.768
     Ni   181      S                    0.410
     Ni   181      Px                   0.309
     Ni   181      Py                   0.254
     Ni   181      Pz                   0.297
     Ni   182      Dzz                  1.822
     Ni   182      Dzy                  1.692
     Ni   182      Dzx                  1.757
     Ni   182      Dxx-yy               1.793
     Ni   182      Dxy                  1.743
     Ni   182      S                    0.400
     Ni   182      Px                   0.272
     Ni   182      Py                   0.298
     Ni   182      Pz                   0.311
     Ni   183      Dzz                  1.834
     Ni   183      Dzy                  1.673
     Ni   183      Dzx                  1.718
     Ni   183      Dxx-yy               1.769
     Ni   183      Dxy                  1.775
     Ni   183      S                    0.408
     Ni   183      Px                   0.284
     Ni   183      Py                   0.299
     Ni   183      Pz                   0.328
                           Total:    2046.000

     Atomic Populations (Mulliken)
Species          Ion     s      p      d      f     Total  Charge (e)
  Al              1     0.84   1.91   0.00   0.00   2.75     0.25
  Al              2     0.83   1.90   0.00   0.00   2.74     0.26
  Al              3     0.86   1.95   0.00   0.00   2.81     0.19
  Al              4     0.85   1.94   0.00   0.00   2.79     0.21
  Al              5     0.85   1.92   0.00   0.00   2.77     0.23
  Al              6     0.84   1.90   0.00   0.00   2.74     0.26
  Al              7     0.86   1.92   0.00   0.00   2.78     0.22
  Al              8     0.84   1.90   0.00   0.00   2.74     0.26
  Al              9     0.85   1.93   0.00   0.00   2.78     0.22
  Al             10     0.86   1.94   0.00   0.00   2.80     0.20
  Al             11     0.86   1.93   0.00   0.00   2.78     0.22
  Al             12     0.86   1.96   0.00   0.00   2.82     0.18
  Al             13     0.84   1.91   0.00   0.00   2.75     0.25
  Al             14     0.84   1.91   0.00   0.00   2.76     0.24
  Al             15     0.83   1.89   0.00   0.00   2.72     0.28
  Al             16     0.84   1.93   0.00   0.00   2.77     0.23
  Al             17     0.85   1.95   0.00   0.00   2.80     0.20
  Al             18     0.85   1.95   0.00   0.00   2.81     0.19
  Al             19     0.85   1.92   0.00   0.00   2.77     0.23
  Al             20     0.86   1.96   0.00   0.00   2.82     0.18
  Al             21     0.85   1.95   0.00   0.00   2.80     0.20
  Al             22     0.86   1.96   0.00   0.00   2.82     0.18
  Al             23     0.85   1.94   0.00   0.00   2.78     0.22
  Al             24     0.87   1.98   0.00   0.00   2.85     0.15
  Al             25     0.85   1.95   0.00   0.00   2.80     0.20
  Al             26     0.87   1.96   0.00   0.00   2.83     0.17
  Al             27     0.91   1.96   0.00   0.00   2.87     0.13
  Al             28     0.91   1.93   0.00   0.00   2.84     0.16
  Al             29     0.85   1.95   0.00   0.00   2.80     0.20
  Al             30     0.91   1.93   0.00   0.00   2.83     0.17
  Al             31     0.90   1.85   0.00   0.00   2.76     0.24
  Al             32     0.85   1.94   0.00   0.00   2.79     0.21
  Al             33     0.87   1.99   0.00   0.00   2.86     0.14
  Al             34     0.88   1.98   0.00   0.00   2.87     0.13
  Al             35     0.86   1.97   0.00   0.00   2.84     0.16
  Al             36     0.86   1.95   0.00   0.00   2.80     0.20
  Al             37     0.87   1.99   0.00   0.00   2.86     0.14
  Al             38     0.86   1.97   0.00   0.00   2.83     0.17
  Al             39     0.87   1.95   0.00   0.00   2.82     0.18
  Al             40     0.85   1.95   0.00   0.00   2.80     0.20
  Al             41     0.84   1.92   0.00   0.00   2.76     0.24
  Al             42     0.90   1.96   0.00   0.00   2.86     0.14
  Al             43     0.85   1.91   0.00   0.00   2.77     0.23
  Al             44     0.86   1.95   0.00   0.00   2.80     0.20
  Al             45     0.87   1.94   0.00   0.00   2.82     0.18
  Al             46     0.87   1.98   0.00   0.00   2.85     0.15
  Al             47     0.87   2.00   0.00   0.00   2.87     0.13
  Al             48     0.86   1.98   0.00   0.00   2.84     0.16
  Al             49     0.86   1.96   0.00   0.00   2.82     0.18
  Al             50     0.87   1.96   0.00   0.00   2.82     0.18
  Al             51     0.85   1.94   0.00   0.00   2.79     0.21
  Al             52     0.86   1.97   0.00   0.00   2.83     0.17
  Al             53     0.86   1.93   0.00   0.00   2.79     0.21
  Al             54     0.85   1.95   0.00   0.00   2.80     0.20
  Al             55     0.87   1.91   0.00   0.00   2.78     0.22
  Al             56     0.87   1.95   0.00   0.00   2.82     0.18
  Al             57     0.86   1.91   0.00   0.00   2.77     0.23
  Al             58     0.89   1.99   0.00   0.00   2.88     0.12
  Al             59     0.89   1.93   0.00   0.00   2.82     0.18
  Al             60     0.87   1.94   0.00   0.00   2.81     0.19
[...]
  Ni            169     0.41   0.85   8.85   0.00  10.10    -0.10
  Ni            170     0.40   0.88   8.80   0.00  10.09    -0.09
  Ni            171     0.45   0.77   8.83   0.00  10.05    -0.05
  Ni            172     0.41   0.92   8.76   0.00  10.09    -0.09
  Ni            173     0.41   0.89   8.79   0.00  10.09    -0.09
  Ni            174     0.39   0.87   8.76   0.00  10.02    -0.02
  Ni            175     0.40   0.87   8.79   0.00  10.06    -0.06
  Ni            176     0.41   0.89   8.76   0.00  10.06    -0.06
  Ni            177     0.42   0.91   8.80   0.00  10.12    -0.12
  Ni            178     0.42   0.87   8.82   0.00  10.10    -0.10
  Ni            179     0.40   0.90   8.77   0.00  10.07    -0.07
  Ni            180     0.41   0.90   8.79   0.00  10.10    -0.10
  Ni            181     0.41   0.86   8.77   0.00  10.04    -0.04
  Ni            182     0.40   0.88   8.81   0.00  10.09    -0.09
  Ni            183     0.41   0.91   8.77   0.00  10.09    -0.09

                 Bond                   Population      Length (A)
             Al 53 -- Ni 36                  0.26        2.39036
             Al 72 -- Ni 23                  0.20        2.40401
             Al 55 -- Ni 28                  0.22        2.40824
             Al 10 -- Ni 116                 0.23        2.41350
             Al 39 -- Ni 110                 0.20        2.41557
             Al 60 -- Ni 24                  0.24        2.41808
             Al 59 -- Ni 69                  0.20        2.42111
             Al 31 -- Ni 149                 0.31        2.42157
             Al 45 -- Ni 102                 0.21        2.42446
             Al 20 -- Ni 50                  0.24        2.42715
             Al 4  -- Ni 59                  0.25        2.42772
             Al 29 -- Ni 154                 0.20        2.43039
             Al 55 -- Ni 37                  0.25        2.43045
             Al 21 -- Ni 54                  0.24        2.43259
             Al 31 -- Ni 145                 0.29        2.43277
             Al 60 -- Ni 23                  0.21        2.43337
             Al 45 -- Ni 109                 0.25        2.43356
             Al 43 -- Ni 106                 0.21        2.43360
             Al 43 -- Ni 151                 0.28        2.43516
             Al 71 -- Ni 37                  0.22        2.43689
             Al 21 -- Ni 179                 0.20        2.43911
             Al 4  -- Ni 60                  0.22        2.43917
             Al 20 -- Ni 49                  0.20        2.44049
             Al 32 -- Ni 139                 0.25        2.44104
             Al 24 -- Ni 50                  0.22        2.44186
             Al 72 -- Ni 33                  0.22        2.44284
             Al 10 -- Ni 5                   0.21        2.44451
             Al 69 -- Ni 23                  0.21        2.44467
             Al 42 -- Ni 76                  0.25        2.44489
             Al 48 -- Ni 43                  0.20        2.44506
             Al 42 -- Ni 75                  0.20        2.44507
             Al 24 -- Ni 178                 0.22        2.44599
             Al 9  -- Ni 107                 0.24        2.44757
             Al 16 -- Ni 183                 0.19        2.44867
             Al 52 -- Ni 97                  0.19        2.45045
             Al 21 -- Ni 133                 0.23        2.45202
             Al 45 -- Ni 101                 0.23        2.45211
             Al 61 -- Ni 65                  0.20        2.45233
             Al 6  -- Ni 37                  0.26        2.45294
             Al 22 -- Ni 168                 0.28        2.45386
             Al 36 -- Ni 116                 0.24        2.45464
             Al 3  -- Ni 14                  0.23        2.45599
             Al 28 -- Ni 157                 0.26        2.45661
             Al 36 -- Ni 166                 0.23        2.45719
             Al 17 -- Ni 182                 0.20        2.45781
             Al 64 -- Ni 28                  0.21        2.45803
             Al 24 -- Ni 148                 0.17        2.45828
             Al 30 -- Ni 164                 0.30        2.45886
             Al 7  -- Ni 83                  0.21        2.45940
             Al 52 -- Ni 126                 0.22        2.46020
             Al 9  -- Ni 141                 0.21        2.46103
             Al 57 -- Ni 88                  0.22        2.46123
             Al 71 -- Ni 28                  0.21        2.46152
             Al 59 -- Ni 5                   0.20        2.46193
             Al 72 -- Ni 21                  0.22        2.46236
             Al 48 -- Ni 57                  0.21        2.46319
             Al 61 -- Ni 20                  0.23        2.46382
             Al 18 -- Ni 54                  0.21        2.46397
             Al 22 -- Ni 53                  0.21        2.46407
             Al 64 -- Ni 36                  0.25        2.46469
[...]
             Al 51 -- Ni 6                   0.12        2.79861
             Al 7  -- Al 51                  0.20        2.80087
             Al 56 -- Al 57                  0.16        2.80614
             Al 7  -- Al 64                  0.17        2.81062
             Al 29 -- Al 69                  0.16        2.81861
             Al 9  -- Al 45                  0.14        2.83762
             Al 10 -- Al 45                  0.14        2.84032
             Al 10 -- Al 39                  0.14        2.85503
             Al 43 -- Al 59                  0.14        2.85562
             Al 55 -- Al 59                  0.16        2.85785
             Al 59 -- Al 60                  0.16        2.89045
             Al 31 -- Al 44                  0.11        2.89930
             Al 57 -- Al 72                  0.12        2.90511
             Al 55 -- Al 60                  0.11        2.92560
             Al 42 -- Al 59                  0.13        2.92697

Writing analysis data to castep.castep_bin

Writing model to castep.check

 A BibTeX formatted list of references used in this run has been written to
 castep.bib

Initialisation time =     11.85 s
Calculation time    =  12542.54 s
Finalisation time   =      5.55 s
Total time          =  12559.95 s

Overall parallel efficiency rating: Good (71%)

Data was distributed by:-
G-vector (48-way); efficiency rating: Good (72%)