 Run started: Thu, 27 Apr 2023 01:18:05 +0100

 Atomic calculation performed for Al: 1s2 2s2 2p6 3s2 3p1

 Converged in 52 iterations to an ae energy of -6606.982 eV

   | Pseudopotential Report - Date of generation 27-04-2023   |
   | Element: Al Ionic charge:  3.00 Level of theory: RPBE    |
   | Atomic Solver: Koelling-Harmon                           |
   |               Reference Electronic Structure             |
   |         Orbital         Occupation         Energy        |
   |            3s              2.000           -0.284        |
   |            3p              1.000           -0.100        |
   |                 Pseudopotential Definition               |
   |        Beta     l      e      Rc     scheme   norm       |
   |          1      0   -0.284   2.192     qc      0         |
   |          2      0    0.250   2.192     qc      0         |
   |          3      1   -0.100   2.192     qc      0         |
   |          4      1    0.250   2.192     qc      0         |
   |          5      2    0.000   2.000     qc      0         |
   |          6      2    0.250   2.000     qc      0         |
   |         loc     3    0.000   2.192     pn      0         |
   | Augmentation charge Rinner = 1.398                       |
   | Partial core correction Rc = 1.398                       |
   | "3|2.2|2.2|1.4|4|5|5|30:31:32U2U2"                       |
   |      Author: Chris J. Pickard, Cambridge University      |

 Atomic calculation performed for Ni: 1s2 2s2 2p6 3s2 3p6 3d8 4s2

 Converged in 109 iterations to an ae energy of -41381.414 eV

   | Pseudopotential Report - Date of generation 27-04-2023   |
   | Element: Ni Ionic charge: 10.00 Level of theory: RPBE    |
   | Atomic Solver: Koelling-Harmon                           |
   |               Reference Electronic Structure             |
   |         Orbital         Occupation         Energy        |
   |            3d              8.000           -0.324        |
   |            4s              2.000           -0.204        |
   |                 Pseudopotential Definition               |
   |        Beta     l      e      Rc     scheme   norm       |
   |          1      0   -0.204   2.401     qc      0         |
   |          2      0    0.250   2.401     qc      0         |
   |          3      1    0.000   2.401     qc      0         |
   |          4      1    0.250   2.401     qc      0         |
   |          5      2   -0.324   1.999     qc      0         |
   |          6      2    0.250   1.999     qc      0         |
   |         loc     3    0.000   2.401     pn      0         |
   | Augmentation charge Rinner = 1.001                       |
   | Partial core correction Rc = 1.001                       |
   | "3|2.4|2.4|1.0|8|9|10|40:41:32U2U2(qc=5.5)"              |
   |      Author: Chris J. Pickard, Cambridge University      |

 Pseudo atomic calculation performed for Al 3s2 3p1

 Converged in 13 iterations to a total energy of -107.6593 eV

 Pseudo atomic calculation performed for Ni 3d8 4s2

 Converged in 41 iterations to a total energy of -1369.7890 eV
 Calculation parallelised over 128 processes.
 Data is distributed by G-vector(128-way)

 ************************************ Title ************************************

 ***************************** General Parameters ******************************

 output verbosity                               : normal  (1)
 write checkpoint data to                       : castep.check
 type of calculation                            : geometry optimization
 stress calculation                             : off
 density difference calculation                 : off
 electron localisation func (ELF) calculation   : off
 Hirshfeld analysis                             : off
 polarisation (Berry phase) analysis            : off
 molecular orbital projected DOS                : off
 deltaSCF calculation                           : off
 unlimited duration calculation
 timing information                             : on
 write extra output files                       : on
 write final potential to formatted file        : off
 write final density to formatted file          : off
 write BibTeX reference list                    : on
 write OTFG pseudopotential files               : on
 write electrostatic potential file             : on
 write bands file                               : on
 checkpoint writing                             : both castep_bin and check files

 output         length unit                     : A
 output           mass unit                     : amu
 output           time unit                     : ps
 output         charge unit                     : e
 output           spin unit                     : hbar/2
 output         energy unit                     : eV
 output          force unit                     : eV/A
 output       velocity unit                     : A/ps
 output       pressure unit                     : GPa
 output     inv_length unit                     : 1/A
 output      frequency unit                     : cm-1
 output force constant unit                     : eV/A**2
 output         volume unit                     : A**3
 output   IR intensity unit                     : (D/A)**2/amu
 output         dipole unit                     : D
 output         efield unit                     : eV/A/e
 output        entropy unit                     : J/mol/K
 output    efield chi2 unit                     : pm/V

 wavefunctions paging                           : none
 random number generator seed                   : randomised (11807486)
 data distribution                              : optimal for this architecture
 optimization strategy                          : maximize speed(+++)

 *********************** Exchange-Correlation Parameters ***********************

 using functional                               : revised Perdew Burke Ernzerhof
 relativistic treatment                         : Koelling-Harmon
 DFT+D: Semi-empirical dispersion correction    : off

 ************************* Pseudopotential Parameters **************************

 pseudopotential representation                 : reciprocal space
 <beta|phi> representation                      : reciprocal space
 spin-orbit coupling                            : off

 **************************** Basis Set Parameters *****************************

 plane wave basis set cut-off                   :   900.0000   eV
 size of standard grid                          :     1.7500
 size of   fine   gmax                          :    26.8966   1/A
 finite basis set correction                    : none

 **************************** Electronic Parameters ****************************

 number of  electrons                           :  2109.
 net charge of system                           :  0.000
 net spin   of system                           :  1.000
 number of  up  spins                           :  1055.
 number of down spins                           :  1054.
 treating system as spin-polarized
 number of bands                                :       1167

 ********************* Electronic Minimization Parameters **********************

 Method: Treating system as metallic with density mixing treatment of electrons,
         and number of  SD  steps               :          1
         and number of  CG  steps               :          4

 total energy / atom convergence tol.           : 0.1000E-05   eV
 eigen-energy convergence tolerance             : 0.2185E-06   eV
 max force / atom convergence tol.              : ignored
 convergence tolerance window                   :          3   cycles
 max. number of SCF cycles                      :        200
 number of fixed-spin iterations                :         10
 smearing scheme                                : Gaussian
 smearing width                                 : 0.2000       eV
 Fermi energy convergence tolerance             : 0.2721E-13   eV
 periodic dipole correction                     : NONE
 periodically dump wavefunctions to             : castep.wvfn
 dump wavefunctions every                       :          1   SCF cycles

 ************************** Density Mixing Parameters **************************

 density-mixing scheme                          : Pulay
 max. length of mixing history                  :         20
 charge density mixing amplitude                : 0.8000
   spin density mixing amplitude                :  2.000
 cut-off energy for mixing                      :  900.0       eV

 *********************** Population Analysis Parameters ************************

 Population analysis with cutoff                :  3.000       A
 Population analysis output                     : summary and pdos components

 ********************** Geometry Optimization Parameters ***********************

 optimization method                            : LBFGS
 max. no. of LBFGS updates                      : unbounded
 variable cell method                           : fixed basis quality
 max. number of steps                           :         30
 estimated bulk modulus                         :  500.0       GPa
 estimated <frequency>                          :  1668.       cm-1
 geom line minimiser                            : on
 with line minimiser tolerance                  :     0.4000
  with spin fully able to relax for all steps
 total energy convergence tolerance             : 0.2000E-04   eV/atom
        max ionic |force| tolerance             : 0.5000E-01   eV/A
 max ionic |displacement| tolerance             : 0.1000E-02   A
   max |stress component| tolerance             : 0.1000       GPa
 convergence tolerance window                   :          2   steps
 backup results every                           :          5   steps
 write geom trajectory file                     : on

                                      Unit Cell
        Real Lattice(A)                      Reciprocal Lattice(1/A)
    14.4648280     0.0000000     0.0000000        0.434376773   0.000000000   0.000000000
     0.0000000    14.4648280     0.0000000        0.000000000   0.434376773   0.000000000
     0.0000000     0.0000000    14.4648280        0.000000000   0.000000000   0.434376773

                       Lattice parameters(A)       Cell Angles
                    a =     14.464828          alpha =   90.000000
                    b =     14.464828          beta  =   90.000000
                    c =     14.464828          gamma =   90.000000

                       Current cell volume =          3026.494030       A**3
                                   density =             4.285146   AMU/A**3
                                           =             7.115653     g/cm^3

                                     Cell Contents
                         Total number of ions in cell =  255
                      Total number of species in cell =    2
                        Max number of any one species =  192

            x  Element    Atom        Fractional coordinates of atoms  x
            x            Number           u          v          w      x
            x  Al           1         0.570798   0.307325   0.064198   x
[...]
                128   dn:     0.223   0.443   4.356   0.000   5.022
  Ni            129   up:     0.211   0.450   4.382   0.000   5.043    -0.086        0.000
                129   dn:     0.211   0.450   4.382   0.000   5.043
  Ni            130   up:     0.217   0.429   4.390   0.000   5.036    -0.073        0.000
                130   dn:     0.217   0.429   4.390   0.000   5.036
  Ni            131   up:     0.194   0.429   4.380   0.000   5.004    -0.008        0.000
                131   dn:     0.194   0.429   4.380   0.000   5.004
  Ni            132   up:     0.208   0.452   4.363   0.000   5.023    -0.046        0.000
                132   dn:     0.208   0.452   4.363   0.000   5.023
  Ni            133   up:     0.208   0.459   4.406   0.000   5.073    -0.146        0.000
                133   dn:     0.208   0.459   4.406   0.000   5.073
  Ni            134   up:     0.214   0.456   4.402   0.000   5.072    -0.144        0.000
                134   dn:     0.214   0.456   4.402   0.000   5.072
  Ni            135   up:     0.235   0.461   4.402   0.000   5.098    -0.196        0.000
                135   dn:     0.235   0.461   4.402   0.000   5.098
  Ni            136   up:     0.204   0.455   4.384   0.000   5.043    -0.085        0.000
                136   dn:     0.204   0.455   4.384   0.000   5.043
  Ni            137   up:     0.207   0.452   4.376   0.000   5.035    -0.070        0.000
                137   dn:     0.207   0.452   4.376   0.000   5.035
  Ni            138   up:     0.202   0.447   4.399   0.000   5.048    -0.097        0.000
                138   dn:     0.202   0.447   4.399   0.000   5.048
  Ni            139   up:     0.208   0.425   4.414   0.000   5.047    -0.094        0.000
                139   dn:     0.208   0.425   4.414   0.000   5.047
  Ni            140   up:     0.205   0.433   4.413   0.000   5.051    -0.101        0.000
                140   dn:     0.205   0.433   4.413   0.000   5.051
  Ni            141   up:     0.195   0.423   4.395   0.000   5.012    -0.024        0.000
                141   dn:     0.195   0.423   4.395   0.000   5.012
  Ni            142   up:     0.198   0.430   4.376   0.000   5.003    -0.007        0.000
                142   dn:     0.198   0.430   4.376   0.000   5.003
  Ni            143   up:     0.211   0.455   4.377   0.000   5.043    -0.086        0.000
                143   dn:     0.211   0.455   4.377   0.000   5.043
  Ni            144   up:     0.208   0.433   4.393   0.000   5.034    -0.067        0.000
                144   dn:     0.208   0.433   4.393   0.000   5.034
  Ni            145   up:     0.209   0.434   4.389   0.000   5.033    -0.065        0.000
                145   dn:     0.209   0.434   4.389   0.000   5.033
  Ni            146   up:     0.206   0.446   4.382   0.000   5.033    -0.067        0.000
                146   dn:     0.206   0.446   4.382   0.000   5.033
  Ni            147   up:     0.226   0.426   4.388   0.000   5.041    -0.081        0.000
                147   dn:     0.226   0.426   4.388   0.000   5.041
  Ni            148   up:     0.200   0.447   4.368   0.000   5.015    -0.031        0.000
                148   dn:     0.200   0.447   4.368   0.000   5.015
  Ni            149   up:     0.200   0.439   4.386   0.000   5.025    -0.049        0.000
                149   dn:     0.200   0.439   4.386   0.000   5.025
  Ni            150   up:     0.210   0.412   4.423   0.000   5.045    -0.091       -0.000
                150   dn:     0.210   0.412   4.423   0.000   5.045
  Ni            151   up:     0.205   0.430   4.405   0.000   5.040    -0.080        0.000
                151   dn:     0.205   0.430   4.405   0.000   5.040
  Ni            152   up:     0.198   0.412   4.407   0.000   5.017    -0.034       -0.000
                152   dn:     0.198   0.412   4.407   0.000   5.017
  Ni            153   up:     0.226   0.448   4.430   0.000   5.104    -0.209        0.000
                153   dn:     0.226   0.448   4.430   0.000   5.104
  Ni            154   up:     0.204   0.452   4.384   0.000   5.040    -0.080        0.000
                154   dn:     0.204   0.452   4.384   0.000   5.040
  Ni            155   up:     0.206   0.443   4.394   0.000   5.042    -0.085        0.000
                155   dn:     0.206   0.443   4.394   0.000   5.042
  Ni            156   up:     0.203   0.439   4.379   0.000   5.022    -0.043        0.000
                156   dn:     0.203   0.439   4.379   0.000   5.022
  Ni            157   up:     0.202   0.461   4.355   0.000   5.018    -0.036        0.000
                157   dn:     0.202   0.461   4.355   0.000   5.018
  Ni            158   up:     0.204   0.445   4.385   0.000   5.035    -0.069        0.000
                158   dn:     0.204   0.445   4.385   0.000   5.035
  Ni            159   up:     0.211   0.442   4.395   0.000   5.048    -0.096        0.000
                159   dn:     0.211   0.442   4.395   0.000   5.048
  Ni            160   up:     0.206   0.447   4.398   0.000   5.051    -0.101        0.000
                160   dn:     0.206   0.447   4.398   0.000   5.051
  Ni            161   up:     0.200   0.446   4.383   0.000   5.030    -0.060        0.000
                161   dn:     0.200   0.446   4.383   0.000   5.030
  Ni            162   up:     0.207   0.442   4.396   0.000   5.045    -0.090        0.000
                162   dn:     0.207   0.442   4.396   0.000   5.045
  Ni            163   up:     0.200   0.441   4.375   0.000   5.016    -0.033        0.000
                163   dn:     0.200   0.441   4.375   0.000   5.016
  Ni            164   up:     0.199   0.448   4.375   0.000   5.022    -0.044        0.000
                164   dn:     0.199   0.448   4.375   0.000   5.022
  Ni            165   up:     0.204   0.446   4.364   0.000   5.014    -0.027        0.000
                165   dn:     0.204   0.446   4.364   0.000   5.014
  Ni            166   up:     0.204   0.434   4.380   0.000   5.019    -0.038        0.000
                166   dn:     0.204   0.434   4.380   0.000   5.019
  Ni            167   up:     0.203   0.455   4.368   0.000   5.027    -0.054        0.000
                167   dn:     0.203   0.455   4.368   0.000   5.027
  Ni            168   up:     0.202   0.455   4.369   0.000   5.026    -0.052        0.000
                168   dn:     0.202   0.455   4.369   0.000   5.026
  Ni            169   up:     0.207   0.453   4.415   0.000   5.075    -0.149        0.000
                169   dn:     0.207   0.453   4.415   0.000   5.075
  Ni            170   up:     0.200   0.424   4.426   0.000   5.050    -0.100        0.000
                170   dn:     0.200   0.424   4.426   0.000   5.050
  Ni            171   up:     0.206   0.456   4.378   0.000   5.040    -0.080        0.000
                171   dn:     0.206   0.456   4.378   0.000   5.040
  Ni            172   up:     0.199   0.449   4.383   0.000   5.031    -0.062        0.000
                172   dn:     0.199   0.449   4.383   0.000   5.031
  Ni            173   up:     0.207   0.447   4.378   0.000   5.031    -0.062        0.000
                173   dn:     0.207   0.447   4.378   0.000   5.031
  Ni            174   up:     0.207   0.444   4.394   0.000   5.046    -0.091        0.000
                174   dn:     0.207   0.444   4.394   0.000   5.046
  Ni            175   up:     0.207   0.448   4.392   0.000   5.047    -0.094        0.000
                175   dn:     0.207   0.448   4.392   0.000   5.047
  Ni            176   up:     0.211   0.464   4.363   0.000   5.037    -0.075        0.000
                176   dn:     0.211   0.464   4.363   0.000   5.037
  Ni            177   up:     0.200   0.423   4.407   0.000   5.030    -0.060        0.000
                177   dn:     0.200   0.423   4.407   0.000   5.030
  Ni            178   up:     0.197   0.419   4.393   0.000   5.009    -0.017        0.000
                178   dn:     0.197   0.419   4.393   0.000   5.009
  Ni            179   up:     0.207   0.453   4.378   0.000   5.038    -0.077        0.000
                179   dn:     0.207   0.453   4.378   0.000   5.038
  Ni            180   up:     0.207   0.454   4.364   0.000   5.024    -0.049        0.000
                180   dn:     0.207   0.454   4.364   0.000   5.024
  Ni            181   up:     0.210   0.438   4.408   0.000   5.056    -0.112        0.000
                181   dn:     0.210   0.438   4.408   0.000   5.056
  Ni            182   up:     0.208   0.441   4.392   0.000   5.041    -0.081        0.000
                182   dn:     0.208   0.441   4.392   0.000   5.041
  Ni            183   up:     0.203   0.450   4.366   0.000   5.018    -0.037        0.000
                183   dn:     0.203   0.450   4.366   0.000   5.018
  Ni            184   up:     0.204   0.441   4.392   0.000   5.037    -0.073        0.000
                184   dn:     0.204   0.441   4.392   0.000   5.037
  Ni            185   up:     0.199   0.452   4.366   0.000   5.016    -0.032        0.000
                185   dn:     0.199   0.452   4.366   0.000   5.016
  Ni            186   up:     0.201   0.430   4.394   0.000   5.025    -0.051        0.000
                186   dn:     0.201   0.430   4.394   0.000   5.025
  Ni            187   up:     0.204   0.437   4.375   0.000   5.016    -0.033        0.000
                187   dn:     0.204   0.437   4.375   0.000   5.016
  Ni            188   up:     0.205   0.442   4.395   0.000   5.042    -0.085        0.000
                188   dn:     0.205   0.442   4.395   0.000   5.042
  Ni            189   up:     0.203   0.439   4.379   0.000   5.020    -0.040        0.000
                189   dn:     0.203   0.439   4.379   0.000   5.020
  Ni            190   up:     0.207   0.436   4.386   0.000   5.029    -0.057        0.000
                190   dn:     0.207   0.436   4.386   0.000   5.029
  Ni            191   up:     0.204   0.435   4.398   0.000   5.036    -0.073        0.000
                191   dn:     0.204   0.435   4.398   0.000   5.036
  Ni            192   up:     0.205   0.447   4.382   0.000   5.034    -0.067        0.000
                192   dn:     0.205   0.447   4.382   0.000   5.034

                 Bond                   Population        Spin       Length (A)
             Al 56 -- Ni 25                  0.32         0.00          2.39903
             Al 56 -- Ni 153                 0.32         0.00          2.41230
             Al 41 -- Ni 65                  0.24         0.00          2.42325
             Al 43 -- Ni 153                 0.23         0.00          2.42661
             Al 58 -- Ni 169                 0.27         0.00          2.42691
             Al 62 -- Ni 169                 0.23         0.00          2.43343
             Al 13 -- Ni 39                  0.24         0.00          2.43508
             Al 59 -- Ni 115                 0.22         0.00          2.43581
             Al 55 -- Ni 106                 0.18         0.00          2.43675
             Al 38 -- Ni 111                 0.24         0.00          2.43704
             Al 44 -- Ni 25                  0.24         0.00          2.44066
             Al 46 -- Ni 130                 0.27         0.00          2.44164
             Al 56 -- Ni 127                 0.32         0.00          2.44253
             Al 42 -- Ni 158                 0.21         0.00          2.44709
             Al 44 -- Ni 146                 0.18         0.00          2.44725
             Al 62 -- Ni 168                 0.24         0.00          2.45020
             Al 53 -- Ni 47                  0.22         0.00          2.45046
             Al 50 -- Ni 110                 0.20         0.00          2.45378
             Al 43 -- Ni 149                 0.20         0.00          2.45719
             Al 54 -- Ni 114                 0.23         0.00          2.45777
             Al 23 -- Ni 68                  0.25         0.00          2.45896
             Al 45 -- Ni 182                 0.20         0.00          2.45950
             Al 34 -- Ni 71                  0.22        -0.00          2.46096
             Al 13 -- Ni 38                  0.26        -0.00          2.46390
             Al 55 -- Ni 133                 0.22         0.00          2.46397
             Al 52 -- Ni 138                 0.20         0.00          2.46649
             Al 55 -- Ni 135                 0.23         0.00          2.46659
             Al 59 -- Ni 111                 0.22         0.00          2.46740
            Ni 155 -- Ni 160                 0.06         0.00          2.46805
             Al 11 -- Ni 27                  0.24        -0.00          2.46852
             Al 11 -- Ni 8                   0.25         0.00          2.46993
             Al 47 -- Ni 53                  0.20         0.00          2.47169
             Al 59 -- Ni 113                 0.21         0.00          2.47182
             Al 33 -- Ni 191                 0.21         0.00          2.47227
             Al 40 -- Ni 164                 0.26        -0.00          2.47238
             Al 46 -- Ni 124                 0.28         0.00          2.47253
             Al 44 -- Ni 147                 0.22         0.00          2.47285
             Al 5  -- Ni 86                  0.25         0.00          2.47289
             Al 53 -- Ni 136                 0.22        -0.00          2.47325
             Al 47 -- Ni 59                  0.20         0.00          2.47354
             Al 34 -- Ni 95                  0.22        -0.00          2.47406
             Al 46 -- Ni 123                 0.27         0.00          2.47573
             Al 11 -- Ni 1                   0.24        -0.00          2.47586
             Al 49 -- Ni 166                 0.19         0.00          2.47596
             Al 62 -- Ni 171                 0.19        -0.00          2.47606
             Al 41 -- Ni 60                  0.21        -0.00          2.47756
             Al 55 -- Ni 107                 0.23         0.00          2.47880
             Al 56 -- Ni 135                 0.33         0.00          2.47952
             Al 50 -- Ni 118                 0.20        -0.00          2.47981
            Ni 117 -- Ni 119                 0.11        -0.00          2.48117
             Al 52 -- Ni 160                 0.22         0.00          2.48393
             Al 13 -- Ni 13                  0.24         0.00          2.48439
             Al 59 -- Ni 114                 0.27        -0.00          2.48480
             Al 53 -- Ni 42                  0.19         0.00          2.48506
             Al 58 -- Ni 99                  0.19        -0.00          2.48535
             Al 43 -- Ni 130                 0.19         0.00          2.48623
            Ni 146 -- Ni 192                 0.04         0.00          2.48623
             Al 36 -- Ni 115                 0.22         0.00          2.48656
             Al 33 -- Ni 173                 0.19         0.00          2.48686
             Al 34 -- Ni 96                  0.24        -0.00          2.48694
[...]
             Al 53 -- Al 54                  0.17         0.00          2.78707
             Al 43 -- Al 54                  0.17         0.00          2.78959
             Al 41 -- Al 53                  0.17         0.00          2.79569
             Al 57 -- Al 63                  0.16         0.00          2.81198
             Al 55 -- Al 56                  0.15         0.00          2.81300
             Al 13 -- Al 52                  0.18         0.00          2.82174
             Al 42 -- Ni 150                 0.08         0.00          2.82899
             Al 19 -- Al 56                  0.15         0.00          2.83050
             Al 13 -- Al 59                  0.16         0.00          2.84434
             Al 46 -- Al 47                  0.13         0.00          2.87607
             Al 41 -- Al 54                  0.12         0.00          2.88185
             Al 44 -- Al 62                  0.12         0.00          2.88669
             Al 56 -- Ni 31                  0.05         0.00          2.92461
             Al 13 -- Al 55                  0.08         0.00          2.93148
             Al 11 -- Al 56                  0.10         0.00          2.93737

Writing analysis data to castep.castep_bin

Writing model to castep.check

 A BibTeX formatted list of references used in this run has been written to
 castep.bib

Initialisation time =     25.14 s
Calculation time    =  16655.19 s
Finalisation time   =     11.63 s
Total time          =  16691.96 s

Overall parallel efficiency rating: Satisfactory (65%)

Data was distributed by:-
G-vector (128-way); efficiency rating: Satisfactory (67%)