 Run started: Mon, 03 Oct 2022 19:17:43 +0100

 Atomic calculation performed for Al: 1s2 2s2 2p6 3s2 3p1

 Converged in 55 iterations to an ae energy of -6578.725 eV

   | Pseudopotential Report - Date of generation  3-10-2022   |
   | Element: Al Ionic charge:  3.00 Level of theory: LDA     |
   | Atomic Solver: Koelling-Harmon                           |
   |               Reference Electronic Structure             |
   |         Orbital         Occupation         Energy        |
   |            3s              2.000           -0.288        |
   |            3p              1.000           -0.102        |
   |                 Pseudopotential Definition               |
   |        Beta     l      e      Rc     scheme   norm       |
   |          1      0   -0.288   2.192     qc      0         |
   |          2      0    0.250   2.192     qc      0         |
   |          3      1   -0.102   2.192     qc      0         |
   |          4      1    0.250   2.192     qc      0         |
   |          5      2    0.000   2.000     qc      0         |
   |          6      2    0.250   2.000     qc      0         |
   |         loc     3    0.000   2.192     pn      0         |
   | Augmentation charge Rinner = 1.398                       |
   | Partial core correction Rc = 1.398                       |
   | "3|2.2|2.2|1.4|4|5|5|30:31:32U2U2"                       |
   |      Author: Chris J. Pickard, Cambridge University      |

 Atomic calculation performed for Ni: 1s2 2s2 2p6 3s2 3p6 3d8 4s2

[...]

   | Pseudopotential Report - Date of generation  3-10-2022   |
   | Element: Ni Ionic charge: 10.00 Level of theory: LDA     |
   | Atomic Solver: Koelling-Harmon                           |
   |               Reference Electronic Structure             |
   |         Orbital         Occupation         Energy        |
   |            3d              8.000           -0.336        |
   |            4s              2.000           -0.216        |
   |                 Pseudopotential Definition               |
   |        Beta     l      e      Rc     scheme   norm       |
   |          1      0   -0.216   2.401     qc      0         |
   |          2      0    0.250   2.401     qc      0         |
   |          3      1    0.000   2.401     qc      0         |
   |          4      1    0.250   2.401     qc      0         |
   |          5      2   -0.336   1.999     qc      0         |
   |          6      2    0.250   1.999     qc      0         |
   |         loc     3    0.000   2.401     pn      0         |
   | Augmentation charge Rinner = 1.001                       |
   | Partial core correction Rc = 1.001                       |
   | "3|2.4|2.4|1.0|8|9|10|40:41:32U2U2(qc=5.5)"              |
   |      Author: Chris J. Pickard, Cambridge University      |

 Pseudo atomic calculation performed for Al 3s2 3p1

 Converged in 15 iterations to a total energy of -105.5942 eV

 Pseudo atomic calculation performed for Ni 3d8 4s2

 Converged in 38 iterations to a total energy of -1361.6259 eV
 Calculation parallelised over 28 processes.
 Data is distributed by G-vector(28-way)

 ************************************ Title ************************************

 ***************************** General Parameters ******************************

 output verbosity                               : normal  (1)
 write checkpoint data to                       : castep.check
 type of calculation                            : single point energy
 stress calculation                             : off
 density difference calculation                 : off
 electron localisation func (ELF) calculation   : off
 Hirshfeld analysis                             : off
 molecular orbital projected DOS                : off
 deltaSCF calculation                           : off
 unlimited duration calculation
 timing information                             : on
 write extra output files                       : on
 write final potential to formatted file        : off
 write final density to formatted file          : off
 write BibTeX reference list                    : on
 write OTFG pseudopotential files               : on
 write electrostatic potential file             : on
 write bands file                               : on
 checkpoint writing                             : both castep_bin and check files
 random number generator seed                   : randomised (191743924)

 *********************** Exchange-Correlation Parameters ***********************

 using functional                               : Local Density Approximation
 DFT+D: Semi-empirical dispersion correction    : off

 ************************* Pseudopotential Parameters **************************

 pseudopotential representation                 : reciprocal space
 <beta|phi> representation                      : reciprocal space
 spin-orbit coupling                            : off

 **************************** Basis Set Parameters *****************************

 basis set accuracy                             : FINE
 finite basis set correction                    : none

 **************************** Electronic Parameters ****************************

 number of  electrons                           :  2112.
 net charge of system                           :  0.000
 treating system as non-spin-polarized
 number of bands                                :       1267

 ********************* Electronic Minimization Parameters **********************

 Method: Treating system as metallic with density mixing treatment of electrons,
         and number of  SD  steps               :          1
         and number of  CG  steps               :          4

 total energy / atom convergence tol.           : 0.1000E-04   eV
 eigen-energy convergence tolerance             : 0.1000E-05   eV
 max force / atom convergence tol.              : ignored
 periodic dipole correction                     : NONE

 ************************** Density Mixing Parameters **************************

 density-mixing scheme                          : Broyden
 max. length of mixing history                  :         20

 *********************** Population Analysis Parameters ************************

 Population analysis with cutoff                :  3.000       A
 Population analysis output                     : summary and pdos components

                                      Unit Cell
        Real Lattice(A)                      Reciprocal Lattice(1/A)
    14.3912000     0.0000000     0.0000000        0.436599124   0.000000000   0.000000000
     0.0000000    14.3912000     0.0000000        0.000000000   0.436599124   0.000000000
     0.0000000     0.0000000    14.3912000        0.000000000   0.000000000   0.436599124

                       Lattice parameters(A)       Cell Angles
                    a =     14.391200          alpha =   90.000000
                    b =     14.391200          beta  =   90.000000
                    c =     14.391200          gamma =   90.000000

                       Current cell volume =          2980.513041       A**3
                                   density =             4.360307   AMU/A**3
                                           =             7.240460     g/cm^3

                                     Cell Contents
                         Total number of ions in cell =  256
                      Total number of species in cell =    2
                        Max number of any one species =  192

            x  Element    Atom        Fractional coordinates of atoms  x
            x            Number           u          v          w      x
            x  Al           1         0.937500   0.937500   0.812500   x
            x  Al           2         0.937500   0.812500   0.937500   x
            x  Al           3         0.687500   0.812500   0.937500   x
            x  Al           4         0.687500   0.687500   0.812500   x
            x  Al           5         0.687500   0.562500   0.937500   x
            x  Al           6         0.562500   0.687500   0.937500   x
            x  Al           7         0.312500   0.562500   0.812500   x
            x  Al           8         0.437500   0.687500   0.812500   x
            x  Al           9         0.312500   0.437500   0.937500   x
            x  Al          10         0.187500   0.312500   0.937500   x
            x  Al          11         0.812500   0.062500   0.812500   x
            x  Al          12         0.812500   0.187500   0.937500   x
            x  Al          13         0.687500   0.187500   0.812500   x
            x  Al          14         0.312500   0.062500   0.812500   x
            x  Al          15         0.312500   0.187500   0.937500   x
            x  Al          16         0.062500   0.062500   0.812500   x
            x  Al          17         0.187500   0.187500   0.812500   x
            x  Al          18         0.187500   0.062500   0.937500   x
            x  Al          19         0.812500   0.812500   0.562500   x
            x  Al          20         0.562500   0.812500   0.562500   x
            x  Al          21         0.437500   0.812500   0.687500   x
            x  Al          22         0.312500   0.937500   0.687500   x
            x  Al          23         0.812500   0.687500   0.687500   x
            x  Al          24         0.437500   0.562500   0.687500   x
            x  Al          25         0.187500   0.687500   0.562500   x
            x  Al          26         0.687500   0.437500   0.562500   x
            x  Al          27         0.562500   0.437500   0.687500   x
            x  Al          28         0.062500   0.312500   0.562500   x
            x  Al          29         0.187500   0.187500   0.562500   x
            x  Al          30         0.687500   0.812500   0.437500   x
            x  Al          31         0.562500   0.937500   0.437500   x
            x  Al          32         0.312500   0.937500   0.437500   x
            x  Al          33         0.062500   0.812500   0.312500   x
            x  Al          34         0.187500   0.812500   0.437500   x
            x  Al          35         0.062500   0.937500   0.437500   x
            x  Al          36         0.937500   0.687500   0.312500   x
            x  Al          37         0.937500   0.562500   0.437500   x
            x  Al          38         0.812500   0.687500   0.437500   x
            x  Al          39         0.687500   0.562500   0.437500   x
            x  Al          40         0.062500   0.562500   0.312500   x
            x  Al          41         0.187500   0.687500   0.312500   x
            x  Al          42         0.187500   0.562500   0.437500   x
            x  Al          43         0.312500   0.437500   0.437500   x
            x  Al          44         0.187500   0.312500   0.437500   x
            x  Al          45         0.687500   0.187500   0.312500   x
            x  Al          46         0.687500   0.062500   0.437500   x
            x  Al          47         0.437500   0.062500   0.437500   x
            x  Al          48         0.062500   0.187500   0.437500   x
            x  Al          49         0.562500   0.812500   0.062500   x
[...]
     Ni   177      Py                   0.296
     Ni   177      Pz                   0.273
     Ni   178      Dzz                  1.787
     Ni   178      Dzy                  1.726
     Ni   178      Dzx                  1.723
     Ni   178      Dxx-yy               1.826
     Ni   178      Dxy                  1.678
     Ni   178      S                    0.393
     Ni   178      Px                   0.308
     Ni   178      Py                   0.305
     Ni   178      Pz                   0.277
     Ni   179      Dzz                  1.811
     Ni   179      Dzy                  1.718
     Ni   179      Dzx                  1.712
     Ni   179      Dxx-yy               1.807
     Ni   179      Dxy                  1.704
     Ni   179      S                    0.408
     Ni   179      Px                   0.288
     Ni   179      Py                   0.303
     Ni   179      Pz                   0.288
     Ni   180      Dzz                  1.818
     Ni   180      Dzy                  1.735
     Ni   180      Dzx                  1.717
     Ni   180      Dxx-yy               1.800
     Ni   180      Dxy                  1.747
     Ni   180      S                    0.421
     Ni   180      Px                   0.301
     Ni   180      Py                   0.283
     Ni   180      Pz                   0.291
     Ni   181      Dzz                  1.787
     Ni   181      Dzy                  1.684
     Ni   181      Dzx                  1.736
     Ni   181      Dxx-yy               1.808
     Ni   181      Dxy                  1.690
     Ni   181      S                    0.403
     Ni   181      Px                   0.298
     Ni   181      Py                   0.320
     Ni   181      Pz                   0.301
     Ni   182      Dzz                  1.834
     Ni   182      Dzy                  1.708
     Ni   182      Dzx                  1.700
     Ni   182      Dxx-yy               1.793
     Ni   182      Dxy                  1.748
     Ni   182      S                    0.409
     Ni   182      Px                   0.273
     Ni   182      Py                   0.289
     Ni   182      Pz                   0.298
     Ni   183      Dzz                  1.819
     Ni   183      Dzy                  1.674
     Ni   183      Dzx                  1.717
     Ni   183      Dxx-yy               1.792
     Ni   183      Dxy                  1.731
     Ni   183      S                    0.406
     Ni   183      Px                   0.282
     Ni   183      Py                   0.306
     Ni   183      Pz                   0.306
     Ni   184      Dzz                  1.810
     Ni   184      Dzy                  1.737
     Ni   184      Dzx                  1.679
     Ni   184      Dxx-yy               1.798
     Ni   184      Dxy                  1.716
     Ni   184      S                    0.406
     Ni   184      Px                   0.310
     Ni   184      Py                   0.285
     Ni   184      Pz                   0.311
     Ni   185      Dzz                  1.815
     Ni   185      Dzy                  1.717
     Ni   185      Dzx                  1.710
     Ni   185      Dxx-yy               1.802
     Ni   185      Dxy                  1.712
     Ni   185      S                    0.409
     Ni   185      Px                   0.302
     Ni   185      Py                   0.295
     Ni   185      Pz                   0.294
     Ni   186      Dzz                  1.801
     Ni   186      Dzy                  1.717
     Ni   186      Dzx                  1.714
     Ni   186      Dxx-yy               1.809
     Ni   186      Dxy                  1.725
     Ni   186      S                    0.408
     Ni   186      Px                   0.299
     Ni   186      Py                   0.287
     Ni   186      Pz                   0.298
     Ni   187      Dzz                  1.801
     Ni   187      Dzy                  1.718
     Ni   187      Dzx                  1.720
     Ni   187      Dxx-yy               1.812
     Ni   187      Dxy                  1.710
     Ni   187      S                    0.403
     Ni   187      Px                   0.295
     Ni   187      Py                   0.284
     Ni   187      Pz                   0.289
     Ni   188      Dzz                  1.819
     Ni   188      Dzy                  1.717
     Ni   188      Dzx                  1.678
     Ni   188      Dxx-yy               1.786
     Ni   188      Dxy                  1.734
     Ni   188      S                    0.413
     Ni   188      Px                   0.303
     Ni   188      Py                   0.293
     Ni   188      Pz                   0.310
     Ni   189      Dzz                  1.813
     Ni   189      Dzy                  1.731
     Ni   189      Dzx                  1.657
     Ni   189      Dxx-yy               1.795
     Ni   189      Dxy                  1.736
     Ni   189      S                    0.391
     Ni   189      Px                   0.303
     Ni   189      Py                   0.283
     Ni   189      Pz                   0.309
     Ni   190      Dzz                  1.837
     Ni   190      Dzy                  1.697
     Ni   190      Dzx                  1.736
     Ni   190      Dxx-yy               1.809
     Ni   190      Dxy                  1.736
     Ni   190      S                    0.419
     Ni   190      Px                   0.272
     Ni   190      Py                   0.284
     Ni   190      Pz                   0.303
     Ni   191      Dzz                  1.825
     Ni   191      Dzy                  1.718
     Ni   191      Dzx                  1.700
     Ni   191      Dxx-yy               1.801
     Ni   191      Dxy                  1.753
     Ni   191      S                    0.402
     Ni   191      Px                   0.285
     Ni   191      Py                   0.283
     Ni   191      Pz                   0.309
     Ni   192      Dzz                  1.824
     Ni   192      Dzy                  1.701
     Ni   192      Dzx                  1.748
     Ni   192      Dxx-yy               1.810
     Ni   192      Dxy                  1.738
     Ni   192      S                    0.400
     Ni   192      Px                   0.275
     Ni   192      Py                   0.293
     Ni   192      Pz                   0.292
                           Total:    2112.000

     Atomic Populations (Mulliken)
Species          Ion     s      p      d      f     Total  Charge (e)
  Al              1     0.87   1.98   0.00   0.00   2.85     0.15
  Al              2     0.86   1.94   0.00   0.00   2.81     0.19
  Al              3     0.86   1.93   0.00   0.00   2.79     0.21
  Al              4     0.88   1.97   0.00   0.00   2.85     0.15
  Al              5     0.88   2.00   0.00   0.00   2.88     0.12
  Al              6     0.89   1.98   0.00   0.00   2.87     0.13
  Al              7     0.87   1.96   0.00   0.00   2.83     0.17
  Al              8     0.87   1.98   0.00   0.00   2.86     0.14
  Al              9     0.89   2.00   0.00   0.00   2.88     0.12
  Al             10     0.89   1.97   0.00   0.00   2.85     0.15
  Al             11     0.87   1.95   0.00   0.00   2.82     0.18
  Al             12     0.88   1.95   0.00   0.00   2.83     0.17
  Al             13     0.86   1.94   0.00   0.00   2.80     0.20
  Al             14     0.88   1.96   0.00   0.00   2.84     0.16
  Al             15     0.89   1.93   0.00   0.00   2.82     0.18
  Al             16     0.87   1.96   0.00   0.00   2.83     0.17
  Al             17     0.89   1.94   0.00   0.00   2.83     0.17
  Al             18     0.88   1.91   0.00   0.00   2.79     0.21
  Al             19     0.87   1.95   0.00   0.00   2.82     0.18
  Al             20     0.87   1.99   0.00   0.00   2.86     0.14
  Al             21     0.87   2.00   0.00   0.00   2.87     0.13
  Al             22     0.86   1.98   0.00   0.00   2.84     0.16
  Al             23     0.86   1.96   0.00   0.00   2.82     0.18
  Al             24     0.87   1.97   0.00   0.00   2.84     0.16
  Al             25     0.87   1.95   0.00   0.00   2.82     0.18
  Al             26     0.87   1.96   0.00   0.00   2.83     0.17
  Al             27     0.87   1.97   0.00   0.00   2.83     0.17
  Al             28     0.88   1.93   0.00   0.00   2.81     0.19
  Al             29     0.86   1.91   0.00   0.00   2.77     0.23
  Al             30     0.88   1.97   0.00   0.00   2.85     0.15
  Al             31     0.88   1.97   0.00   0.00   2.85     0.15
  Al             32     0.85   1.95   0.00   0.00   2.80     0.20
  Al             33     0.88   1.96   0.00   0.00   2.84     0.16
  Al             34     0.89   1.98   0.00   0.00   2.87     0.13
  Al             35     0.86   1.95   0.00   0.00   2.80     0.20
  Al             36     0.90   1.99   0.00   0.00   2.89     0.11
  Al             37     0.86   1.94   0.00   0.00   2.80     0.20
  Al             38     0.89   2.01   0.00   0.00   2.90     0.10
  Al             39     0.86   1.95   0.00   0.00   2.80     0.20
  Al             40     0.91   2.00   0.00   0.00   2.91     0.09
  Al             41     0.88   1.98   0.00   0.00   2.86     0.14
  Al             42     0.86   1.95   0.00   0.00   2.81     0.19
  Al             43     0.87   1.96   0.00   0.00   2.83     0.17
  Al             44     0.89   1.93   0.00   0.00   2.82     0.18
  Al             45     0.85   1.93   0.00   0.00   2.78     0.22
  Al             46     0.85   1.93   0.00   0.00   2.78     0.22
  Al             47     0.86   1.97   0.00   0.00   2.84     0.16
  Al             48     0.87   1.91   0.00   0.00   2.78     0.22
  Al             49     0.87   1.94   0.00   0.00   2.80     0.20
  Al             50     0.86   1.96   0.00   0.00   2.82     0.18
  Al             51     0.90   1.97   0.00   0.00   2.87     0.13
  Al             52     0.91   2.03   0.00   0.00   2.94     0.06
  Al             53     0.87   1.96   0.00   0.00   2.83     0.17
  Al             54     0.87   1.97   0.00   0.00   2.84     0.16
  Al             55     0.90   1.97   0.00   0.00   2.87     0.13
  Al             56     0.88   1.97   0.00   0.00   2.85     0.15
  Al             57     0.89   1.95   0.00   0.00   2.84     0.16
  Al             58     0.86   1.93   0.00   0.00   2.78     0.22
  Al             59     0.88   1.96   0.00   0.00   2.84     0.16
  Al             60     0.87   1.93   0.00   0.00   2.80     0.20
[...]
  Ni            178     0.39   0.89   8.74   0.00  10.02    -0.02
  Ni            179     0.41   0.88   8.75   0.00  10.04    -0.04
  Ni            180     0.42   0.87   8.82   0.00  10.11    -0.11
  Ni            181     0.40   0.92   8.71   0.00  10.03    -0.03
  Ni            182     0.41   0.86   8.78   0.00  10.05    -0.05
  Ni            183     0.41   0.89   8.73   0.00  10.03    -0.03
  Ni            184     0.41   0.91   8.74   0.00  10.05    -0.05
  Ni            185     0.41   0.89   8.76   0.00  10.06    -0.06
  Ni            186     0.41   0.89   8.77   0.00  10.06    -0.06
  Ni            187     0.40   0.87   8.76   0.00  10.03    -0.03
  Ni            188     0.41   0.91   8.73   0.00  10.05    -0.05
  Ni            189     0.39   0.89   8.73   0.00  10.02    -0.02
  Ni            190     0.42   0.86   8.82   0.00  10.09    -0.09
  Ni            191     0.40   0.88   8.80   0.00  10.08    -0.08
  Ni            192     0.40   0.86   8.82   0.00  10.08    -0.08

                 Bond                   Population      Length (A)
             Al 57 -- Ni 74                  0.21        2.39499
             Al 17 -- Ni 110                 0.18        2.39601
             Al 18 -- Ni 37                  0.20        2.39781
             Al 37 -- Ni 120                 0.21        2.40263
             Al 55 -- Ni 25                  0.20        2.40562
             Al 47 -- Ni 53                  0.22        2.40679
             Al 15 -- Ni 5                   0.18        2.41092
             Al 40 -- Ni 62                  0.22        2.41284
             Al 31 -- Ni 86                  0.21        2.41409
             Al 56 -- Ni 166                 0.21        2.41682
             Al 6  -- Ni 28                  0.25        2.41727
             Al 28 -- Ni 120                 0.21        2.41818
             Al 54 -- Ni 39                  0.20        2.42167
             Al 50 -- Ni 37                  0.21        2.42244
             Al 58 -- Ni 21                  0.22        2.42370
             Al 60 -- Ni 19                  0.22        2.42448
             Al 7  -- Ni 123                 0.20        2.42509
             Al 57 -- Ni 69                  0.21        2.42511
             Al 19 -- Ni 144                 0.25        2.42602
             Al 48 -- Ni 59                  0.20        2.42653
             Al 19 -- Ni 146                 0.20        2.42720
             Al 42 -- Ni 111                 0.22        2.42754
             Al 61 -- Ni 1                   0.21        2.42815
             Al 18 -- Ni 3                   0.22        2.43012
             Al 28 -- Ni 109                 0.21        2.43015
             Al 25 -- Ni 123                 0.23        2.43126
             Al 3  -- Ni 191                 0.21        2.43240
             Al 59 -- Ni 17                  0.25        2.43250
             Al 33 -- Ni 84                  0.24        2.43382
             Al 51 -- Ni 176                 0.21        2.43450
             Al 49 -- Ni 42                  0.22        2.43461
             Al 33 -- Ni 35                  0.18        2.43467
             Al 49 -- Ni 39                  0.22        2.43556
             Al 35 -- Ni 58                  0.21        2.43735
             Al 23 -- Ni 132                 0.21        2.43737
             Al 47 -- Ni 99                  0.21        2.43771
             Al 1  -- Ni 145                 0.21        2.43840
             Al 13 -- Ni 164                 0.22        2.43967
             Al 30 -- Ni 93                  0.22        2.43985
             Al 55 -- Ni 26                  0.21        2.44051
             Al 30 -- Ni 88                  0.19        2.44056
             Al 29 -- Ni 100                 0.20        2.44099
             Al 48 -- Ni 51                  0.22        2.44107
             Al 14 -- Ni 186                 0.20        2.44116
             Al 48 -- Ni 58                  0.20        2.44126
             Al 15 -- Ni 158                 0.21        2.44141
             Al 17 -- Ni 94                  0.18        2.44164
             Al 5  -- Ni 163                 0.19        2.44375
             Al 43 -- Ni 65                  0.20        2.44376
             Al 17 -- Ni 95                  0.25        2.44417
             Al 10 -- Ni 155                 0.18        2.44438
             Al 43 -- Ni 77                  0.22        2.44492
             Al 43 -- Ni 64                  0.23        2.44501
             Al 5  -- Ni 175                 0.23        2.44599
             Al 25 -- Ni 122                 0.22        2.44759
             Al 54 -- Ni 28                  0.24        2.44765
             Al 57 -- Ni 20                  0.21        2.44772
             Al 44 -- Ni 62                  0.21        2.44815
             Al 29 -- Ni 95                  0.20        2.44849
             Al 33 -- Ni 92                  0.19        2.44854
[...]
             Al 44 -- Al 48                  0.18        2.84019
             Al 12 -- Al 13                  0.14        2.85840
             Al 14 -- Al 18                  0.16        2.85996
             Al 51 -- Al 58                  0.14        2.86300
             Al 36 -- Al 40                  0.19        2.86502
             Al 29 -- Al 44                  0.15        2.86891
             Al 10 -- Al 59                  0.11        2.87468
             Al 9  -- Al 60                  0.12        2.87537
             Al 28 -- Al 44                  0.15        2.88467
             Al 36 -- Al 37                  0.10        2.88679
             Al 56 -- Al 57                  0.16        2.89375
             Al 28 -- Al 29                  0.13        2.89493
             Al 28 -- Al 48                  0.14        2.89505
             Al 29 -- Al 48                  0.12        2.93804
             Al 15 -- Al 17                  0.10        2.96528

Writing analysis data to castep.castep_bin

Writing model to castep.check

 A BibTeX formatted list of references used in this run has been written to
 castep.bib

Initialisation time =     30.84 s
Calculation time    =  68007.68 s
Finalisation time   =     46.54 s
Total time          =  68085.05 s

Overall parallel efficiency rating: Good (71%)

Data was distributed by:-
G-vector (28-way); efficiency rating: Good (71%)