 Run started: Tue, 11 Oct 2022 14:48:25 +0100

 Atomic calculation performed for Al: 1s2 2s2 2p6 3s2 3p1

 Converged in 52 iterations to an ae energy of -6606.982 eV

   | Pseudopotential Report - Date of generation 11-10-2022   |
   | Element: Al Ionic charge:  3.00 Level of theory: RPBE    |
   | Atomic Solver: Koelling-Harmon                           |
   |               Reference Electronic Structure             |
   |         Orbital         Occupation         Energy        |
   |            3s              2.000           -0.284        |
   |            3p              1.000           -0.100        |
   |                 Pseudopotential Definition               |
   |        Beta     l      e      Rc     scheme   norm       |
   |          1      0   -0.284   2.192     qc      0         |
   |          2      0    0.250   2.192     qc      0         |
   |          3      1   -0.100   2.192     qc      0         |
   |          4      1    0.250   2.192     qc      0         |
   |          5      2    0.000   2.000     qc      0         |
   |          6      2    0.250   2.000     qc      0         |
   |         loc     3    0.000   2.192     pn      0         |
   | Augmentation charge Rinner = 1.398                       |
   | Partial core correction Rc = 1.398                       |
   | "3|2.2|2.2|1.4|4|5|5|30:31:32U2U2"                       |
   |      Author: Chris J. Pickard, Cambridge University      |

 Atomic calculation performed for Ni: 1s2 2s2 2p6 3s2 3p6 3d8 4s2

 Converged in 109 iterations to an ae energy of -41381.414 eV

   | Pseudopotential Report - Date of generation 11-10-2022   |
   | Element: Ni Ionic charge: 10.00 Level of theory: RPBE    |
   | Atomic Solver: Koelling-Harmon                           |
   |               Reference Electronic Structure             |
   |         Orbital         Occupation         Energy        |
   |            3d              8.000           -0.324        |
   |            4s              2.000           -0.204        |
   |                 Pseudopotential Definition               |
   |        Beta     l      e      Rc     scheme   norm       |
   |          1      0   -0.204   2.401     qc      0         |
   |          2      0    0.250   2.401     qc      0         |
   |          3      1    0.000   2.401     qc      0         |
   |          4      1    0.250   2.401     qc      0         |
   |          5      2   -0.324   1.999     qc      0         |
   |          6      2    0.250   1.999     qc      0         |
   |         loc     3    0.000   2.401     pn      0         |
   | Augmentation charge Rinner = 1.001                       |
   | Partial core correction Rc = 1.001                       |
   | "3|2.4|2.4|1.0|8|9|10|40:41:32U2U2(qc=5.5)"              |
   |      Author: Chris J. Pickard, Cambridge University      |

 Pseudo atomic calculation performed for Al 3s2 3p1

 Converged in 13 iterations to a total energy of -107.6592 eV

 Pseudo atomic calculation performed for Ni 3d8 4s2

 Converged in 41 iterations to a total energy of -1369.7890 eV
 Calculation parallelised over 48 processes.
 Data is distributed by G-vector(48-way)

 ************************************ Title ************************************

 ***************************** General Parameters ******************************

 output verbosity                               : normal  (1)
 write checkpoint data to                       : castep.check
 type of calculation                            : geometry optimization
 stress calculation                             : off
 density difference calculation                 : off
 electron localisation func (ELF) calculation   : off
 Hirshfeld analysis                             : off
 molecular orbital projected DOS                : off
 deltaSCF calculation                           : off
 unlimited duration calculation
 timing information                             : on
 write extra output files                       : on
 write final potential to formatted file        : off
 write final density to formatted file          : off
 write BibTeX reference list                    : on
 write OTFG pseudopotential files               : on
 write electrostatic potential file             : on
 write bands file                               : on
 checkpoint writing                             : both castep_bin and check files

 output         length unit                     : A
 output           mass unit                     : amu
 output           time unit                     : ps
 output         charge unit                     : e
 output           spin unit                     : hbar/2
 output         energy unit                     : eV
 output          force unit                     : eV/A
 output       velocity unit                     : A/ps
 output       pressure unit                     : GPa
 output     inv_length unit                     : 1/A
 output      frequency unit                     : cm-1
 output force constant unit                     : eV/A**2
 output         volume unit                     : A**3
 output   IR intensity unit                     : (D/A)**2/amu
 output         dipole unit                     : D
 output         efield unit                     : eV/A/e
 output        entropy unit                     : J/mol/K
 output    efield chi2 unit                     : pm/V

 wavefunctions paging                           : none
 random number generator seed                   : randomised (144826098)
 data distribution                              : optimal for this architecture
 optimization strategy                          : maximize speed(+++)

 *********************** Exchange-Correlation Parameters ***********************

 using functional                               : revised Perdew Burke Ernzerhof
 relativistic treatment                         : Koelling-Harmon
 DFT+D: Semi-empirical dispersion correction    : off

 ************************* Pseudopotential Parameters **************************

 pseudopotential representation                 : reciprocal space
 <beta|phi> representation                      : reciprocal space
 spin-orbit coupling                            : off

 **************************** Basis Set Parameters *****************************

 plane wave basis set cut-off                   :   900.0000   eV
 size of standard grid                          :     1.7500
 size of   fine   gmax                          :    26.8966   1/A
 finite basis set correction                    : automatic
 number of sample energies                      :          3
           sample  spacing                      :     5.0000   eV

 **************************** Electronic Parameters ****************************

 number of  electrons                           :  2112.
 net charge of system                           :  0.000
 treating system as non-spin-polarized
 number of bands                                :       1168

 ********************* Electronic Minimization Parameters **********************

 Method: Treating system as metallic with density mixing treatment of electrons,
         and number of  SD  steps               :          1
         and number of  CG  steps               :          4

 total energy / atom convergence tol.           : 0.1000E-05   eV
 eigen-energy convergence tolerance             : 0.2192E-06   eV
 max force / atom convergence tol.              : ignored
 convergence tolerance window                   :          3   cycles
 max. number of SCF cycles                      :        360
 number of fixed-spin iterations                :         10
 smearing scheme                                : Gaussian
 smearing width                                 : 0.2000       eV
 Fermi energy convergence tolerance             : 0.2721E-13   eV
 periodic dipole correction                     : NONE

 ************************** Density Mixing Parameters **************************

 density-mixing scheme                          : Pulay
 max. length of mixing history                  :         20
 charge density mixing amplitude                : 0.8000
 cut-off energy for mixing                      :  900.0       eV

 *********************** Population Analysis Parameters ************************

 Population analysis with cutoff                :  3.000       A
 Population analysis output                     : summary and pdos components

 ********************** Geometry Optimization Parameters ***********************

 optimization method                            : LBFGS
 max. no. of LBFGS updates                      : unbounded
 preconditioned LBFGS is activated
 preconditioner type                            : EXP
     stabilization constant                     :     0.1000
     parameter A                                :     3.0000
     nearest neighbor distance                  : automatic
     cut-off distance                           : automatic
     parameter mu                               : automatic
 variable cell method                           : fixed basis quality
 max. number of steps                           :         30
 estimated bulk modulus                         :  500.0       GPa
 estimated <frequency>                          :  1668.       cm-1
 geom line minimiser                            : on
 with line minimiser tolerance                  :     0.4000
 total energy convergence tolerance             : 0.2000E-04   eV/atom
        max ionic |force| tolerance             : 0.5000E-01   eV/A
 max ionic |displacement| tolerance             : 0.1000E-02   A
   max |stress component| tolerance             : 0.1000       GPa
 convergence tolerance window                   :          2   steps
 backup results every                           :          5   steps
 write geom trajectory file                     : on

                                      Unit Cell
        Real Lattice(A)                      Reciprocal Lattice(1/A)
    14.4528000     0.0000000     0.0000000        0.434738273   0.000000000   0.000000000
     0.0000000    14.4528000     0.0000000        0.000000000   0.434738273   0.000000000
     0.0000000     0.0000000    14.4528000        0.000000000   0.000000000   0.434738273

                       Lattice parameters(A)       Cell Angles
                    a =     14.452800          alpha =   90.000000
                    b =     14.452800          beta  =   90.000000
                    c =     14.452800          gamma =   90.000000

                       Current cell volume =          3018.950406       A**3
                                   density =             4.304791   AMU/A**3
                                           =             7.148274     g/cm^3

                                     Cell Contents
                         Total number of ions in cell =  256
                      Total number of species in cell =    2
                        Max number of any one species =  192

            x  Element    Atom        Fractional coordinates of atoms  x
            x            Number           u          v          w      x
[...]
     Ni   177      Py                   0.312
     Ni   177      Pz                   0.288
     Ni   178      Dzz                  1.820
     Ni   178      Dzy                  1.690
     Ni   178      Dzx                  1.757
     Ni   178      Dxx-yy               1.819
     Ni   178      Dxy                  1.725
     Ni   178      S                    0.403
     Ni   178      Px                   0.276
     Ni   178      Py                   0.301
     Ni   178      Pz                   0.287
     Ni   179      Dzz                  1.806
     Ni   179      Dzy                  1.723
     Ni   179      Dzx                  1.725
     Ni   179      Dxx-yy               1.815
     Ni   179      Dxy                  1.705
     Ni   179      S                    0.403
     Ni   179      Px                   0.292
     Ni   179      Py                   0.283
     Ni   179      Pz                   0.290
     Ni   180      Dzz                  1.823
     Ni   180      Dzy                  1.686
     Ni   180      Dzx                  1.724
     Ni   180      Dxx-yy               1.788
     Ni   180      Dxy                  1.747
     Ni   180      S                    0.415
     Ni   180      Px                   0.281
     Ni   180      Py                   0.293
     Ni   180      Pz                   0.325
     Ni   181      Dzz                  1.840
     Ni   181      Dzy                  1.669
     Ni   181      Dzx                  1.707
     Ni   181      Dxx-yy               1.782
     Ni   181      Dxy                  1.768
     Ni   181      S                    0.388
     Ni   181      Px                   0.274
     Ni   181      Py                   0.284
     Ni   181      Pz                   0.319
     Ni   182      Dzz                  1.807
     Ni   182      Dzy                  1.730
     Ni   182      Dzx                  1.708
     Ni   182      Dxx-yy               1.810
     Ni   182      Dxy                  1.722
     Ni   182      S                    0.401
     Ni   182      Px                   0.295
     Ni   182      Py                   0.278
     Ni   182      Pz                   0.286
     Ni   183      Dzz                  1.796
     Ni   183      Dzy                  1.721
     Ni   183      Dzx                  1.680
     Ni   183      Dxx-yy               1.804
     Ni   183      Dxy                  1.694
     Ni   183      S                    0.406
     Ni   183      Px                   0.322
     Ni   183      Py                   0.300
     Ni   183      Pz                   0.302
     Ni   184      Dzz                  1.830
     Ni   184      Dzy                  1.688
     Ni   184      Dzx                  1.732
     Ni   184      Dxx-yy               1.806
     Ni   184      Dxy                  1.743
     Ni   184      S                    0.428
     Ni   184      Px                   0.275
     Ni   184      Py                   0.303
     Ni   184      Pz                   0.311
     Ni   185      Dzz                  1.796
     Ni   185      Dzy                  1.708
     Ni   185      Dzx                  1.733
     Ni   185      Dxx-yy               1.814
     Ni   185      Dxy                  1.715
     Ni   185      S                    0.416
     Ni   185      Px                   0.285
     Ni   185      Py                   0.295
     Ni   185      Pz                   0.288
     Ni   186      Dzz                  1.814
     Ni   186      Dzy                  1.686
     Ni   186      Dzx                  1.739
     Ni   186      Dxx-yy               1.800
     Ni   186      Dxy                  1.737
     Ni   186      S                    0.412
     Ni   186      Px                   0.263
     Ni   186      Py                   0.299
     Ni   186      Pz                   0.309
     Ni   187      Dzz                  1.808
     Ni   187      Dzy                  1.696
     Ni   187      Dzx                  1.741
     Ni   187      Dxx-yy               1.811
     Ni   187      Dxy                  1.709
     Ni   187      S                    0.397
     Ni   187      Px                   0.281
     Ni   187      Py                   0.317
     Ni   187      Pz                   0.295
     Ni   188      Dzz                  1.797
     Ni   188      Dzy                  1.761
     Ni   188      Dzx                  1.704
     Ni   188      Dxx-yy               1.835
     Ni   188      Dxy                  1.701
     Ni   188      S                    0.393
     Ni   188      Px                   0.303
     Ni   188      Py                   0.272
     Ni   188      Pz                   0.287
     Ni   189      Dzz                  1.801
     Ni   189      Dzy                  1.760
     Ni   189      Dzx                  1.707
     Ni   189      Dxx-yy               1.832
     Ni   189      Dxy                  1.703
     Ni   189      S                    0.387
     Ni   189      Px                   0.296
     Ni   189      Py                   0.288
     Ni   189      Pz                   0.281
     Ni   190      Dzz                  1.809
     Ni   190      Dzy                  1.695
     Ni   190      Dzx                  1.752
     Ni   190      Dxx-yy               1.808
     Ni   190      Dxy                  1.730
     Ni   190      S                    0.417
     Ni   190      Px                   0.274
     Ni   190      Py                   0.307
     Ni   190      Pz                   0.321
     Ni   191      Dzz                  1.812
     Ni   191      Dzy                  1.769
     Ni   191      Dzx                  1.697
     Ni   191      Dxx-yy               1.837
     Ni   191      Dxy                  1.704
     Ni   191      S                    0.427
     Ni   191      Px                   0.332
     Ni   191      Py                   0.274
     Ni   191      Pz                   0.285
     Ni   192      Dzz                  1.824
     Ni   192      Dzy                  1.699
     Ni   192      Dzx                  1.735
     Ni   192      Dxx-yy               1.806
     Ni   192      Dxy                  1.746
     Ni   192      S                    0.395
     Ni   192      Px                   0.273
     Ni   192      Py                   0.284
     Ni   192      Pz                   0.297
                           Total:    2112.000

     Atomic Populations (Mulliken)
Species          Ion     s      p      d      f     Total  Charge (e)
  Al              1     0.89   1.98   0.00   0.00   2.87     0.13
  Al              2     0.89   2.00   0.00   0.00   2.89     0.11
  Al              3     0.86   1.95   0.00   0.00   2.82     0.18
  Al              4     0.86   1.94   0.00   0.00   2.80     0.20
  Al              5     0.85   1.93   0.00   0.00   2.78     0.22
  Al              6     0.87   1.95   0.00   0.00   2.81     0.19
  Al              7     0.87   1.95   0.00   0.00   2.82     0.18
  Al              8     0.85   1.96   0.00   0.00   2.81     0.19
  Al              9     0.86   1.97   0.00   0.00   2.83     0.17
  Al             10     0.88   1.99   0.00   0.00   2.87     0.13
  Al             11     0.86   1.97   0.00   0.00   2.83     0.17
  Al             12     0.85   1.95   0.00   0.00   2.80     0.20
  Al             13     0.88   1.99   0.00   0.00   2.87     0.13
  Al             14     0.86   1.95   0.00   0.00   2.81     0.19
  Al             15     0.85   1.94   0.00   0.00   2.78     0.22
  Al             16     0.86   1.96   0.00   0.00   2.82     0.18
  Al             17     0.86   1.97   0.00   0.00   2.83     0.17
  Al             18     0.86   1.96   0.00   0.00   2.82     0.18
  Al             19     0.86   1.92   0.00   0.00   2.78     0.22
  Al             20     0.87   1.93   0.00   0.00   2.81     0.19
  Al             21     0.90   1.94   0.00   0.00   2.84     0.16
  Al             22     0.87   1.94   0.00   0.00   2.80     0.20
  Al             23     0.88   1.91   0.00   0.00   2.79     0.21
  Al             24     0.86   1.94   0.00   0.00   2.80     0.20
  Al             25     0.85   1.94   0.00   0.00   2.79     0.21
  Al             26     0.86   1.96   0.00   0.00   2.82     0.18
  Al             27     0.86   1.98   0.00   0.00   2.84     0.16
  Al             28     0.88   1.94   0.00   0.00   2.83     0.17
  Al             29     0.85   1.96   0.00   0.00   2.82     0.18
  Al             30     0.86   1.96   0.00   0.00   2.82     0.18
  Al             31     0.86   1.96   0.00   0.00   2.81     0.19
  Al             32     0.86   1.95   0.00   0.00   2.81     0.19
  Al             33     0.90   2.01   0.00   0.00   2.91     0.09
  Al             34     0.85   1.94   0.00   0.00   2.79     0.21
  Al             35     0.89   1.94   0.00   0.00   2.83     0.17
  Al             36     0.87   1.97   0.00   0.00   2.84     0.16
  Al             37     0.88   1.95   0.00   0.00   2.83     0.17
  Al             38     0.86   1.96   0.00   0.00   2.82     0.18
  Al             39     0.85   1.95   0.00   0.00   2.80     0.20
  Al             40     0.86   1.90   0.00   0.00   2.76     0.24
  Al             41     0.88   2.02   0.00   0.00   2.90     0.10
  Al             42     0.88   1.96   0.00   0.00   2.83     0.17
  Al             43     0.90   1.96   0.00   0.00   2.86     0.14
  Al             44     0.85   1.95   0.00   0.00   2.80     0.20
  Al             45     0.89   1.94   0.00   0.00   2.83     0.17
  Al             46     0.89   1.96   0.00   0.00   2.85     0.15
  Al             47     0.87   1.93   0.00   0.00   2.80     0.20
  Al             48     0.86   1.96   0.00   0.00   2.82     0.18
  Al             49     0.87   1.97   0.00   0.00   2.84     0.16
  Al             50     0.86   1.95   0.00   0.00   2.81     0.19
  Al             51     0.87   1.97   0.00   0.00   2.84     0.16
  Al             52     0.88   1.99   0.00   0.00   2.87     0.13
  Al             53     0.85   1.94   0.00   0.00   2.80     0.20
  Al             54     0.86   1.94   0.00   0.00   2.80     0.20
  Al             55     0.88   1.99   0.00   0.00   2.86     0.14
  Al             56     0.88   1.96   0.00   0.00   2.85     0.15
  Al             57     0.89   1.97   0.00   0.00   2.86     0.14
  Al             58     0.87   1.95   0.00   0.00   2.82     0.18
  Al             59     0.84   1.90   0.00   0.00   2.74     0.26
  Al             60     0.87   1.93   0.00   0.00   2.80     0.20
[...]
  Ni            178     0.40   0.86   8.81   0.00  10.08    -0.08
  Ni            179     0.40   0.86   8.77   0.00  10.04    -0.04
  Ni            180     0.41   0.90   8.77   0.00  10.08    -0.08
  Ni            181     0.39   0.88   8.77   0.00  10.03    -0.03
  Ni            182     0.40   0.86   8.78   0.00  10.04    -0.04
  Ni            183     0.41   0.92   8.70   0.00  10.02    -0.02
  Ni            184     0.43   0.89   8.80   0.00  10.12    -0.12
  Ni            185     0.42   0.87   8.77   0.00  10.05    -0.05
  Ni            186     0.41   0.87   8.78   0.00  10.06    -0.06
  Ni            187     0.40   0.89   8.76   0.00  10.05    -0.05
  Ni            188     0.39   0.86   8.80   0.00  10.05    -0.05
  Ni            189     0.39   0.87   8.80   0.00  10.05    -0.05
  Ni            190     0.42   0.90   8.79   0.00  10.11    -0.11
  Ni            191     0.43   0.89   8.82   0.00  10.14    -0.14
  Ni            192     0.39   0.85   8.81   0.00  10.06    -0.06

                 Bond                   Population      Length (A)
             Al 61 -- Ni 7                   0.19        2.38597
             Al 37 -- Ni 77                  0.21        2.39080
             Al 20 -- Ni 113                 0.21        2.39131
             Al 34 -- Ni 58                  0.22        2.39168
             Al 62 -- Ni 28                  0.26        2.40996
             Al 56 -- Ni 155                 0.23        2.41614
             Al 40 -- Ni 68                  0.26        2.41694
             Al 23 -- Ni 111                 0.21        2.41698
             Al 30 -- Ni 100                 0.24        2.42031
             Al 20 -- Ni 124                 0.21        2.42046
             Al 64 -- Ni 13                  0.21        2.42099
             Al 33 -- Ni 68                  0.24        2.42238
             Al 48 -- Ni 6                   0.21        2.42256
             Al 21 -- Ni 128                 0.23        2.42770
             Al 9  -- Ni 123                 0.26        2.42835
             Al 14 -- Ni 4                   0.24        2.42921
             Al 47 -- Ni 94                  0.22        2.43017
             Al 42 -- Ni 52                  0.23        2.43060
             Al 15 -- Ni 150                 0.23        2.43158
             Al 23 -- Ni 113                 0.19        2.43239
             Al 30 -- Ni 99                  0.22        2.43251
             Al 43 -- Ni 53                  0.20        2.43390
             Al 24 -- Ni 165                 0.23        2.43397
             Al 34 -- Ni 122                 0.22        2.43427
             Al 31 -- Ni 55                  0.23        2.43438
             Al 43 -- Ni 50                  0.18        2.43448
             Al 20 -- Ni 111                 0.20        2.43522
             Al 55 -- Ni 26                  0.24        2.43628
             Al 39 -- Ni 68                  0.25        2.43685
             Al 8  -- Ni 174                 0.20        2.43687
             Al 52 -- Ni 20                  0.22        2.43774
             Al 19 -- Ni 142                 0.23        2.43808
             Al 56 -- Ni 164                 0.21        2.43876
             Al 27 -- Ni 131                 0.23        2.43882
             Al 55 -- Ni 171                 0.23        2.43888
             Al 2  -- Ni 188                 0.22        2.43960
             Al 5  -- Ni 129                 0.24        2.43976
             Al 54 -- Ni 77                  0.19        2.44013
             Al 29 -- Ni 138                 0.21        2.44114
             Al 36 -- Ni 66                  0.20        2.44155
             Al 13 -- Ni 155                 0.22        2.44186
             Al 63 -- Ni 1                   0.22        2.44218
             Al 36 -- Ni 65                  0.24        2.44293
             Al 41 -- Ni 58                  0.21        2.44307
             Al 24 -- Ni 170                 0.22        2.44392
             Al 35 -- Ni 94                  0.18        2.44498
             Al 48 -- Ni 53                  0.23        2.44518
             Al 43 -- Ni 51                  0.19        2.44546
             Al 28 -- Ni 105                 0.19        2.44569
             Al 46 -- Ni 12                  0.19        2.44605
             Al 32 -- Ni 90                  0.18        2.44813
             Al 23 -- Ni 65                  0.22        2.44858
             Al 36 -- Ni 68                  0.22        2.45040
             Al 19 -- Ni 133                 0.20        2.45053
             Al 17 -- Ni 138                 0.21        2.45145
             Al 41 -- Ni 47                  0.21        2.45154
             Al 17 -- Ni 189                 0.22        2.45181
             Al 57 -- Ni 157                 0.20        2.45352
             Al 35 -- Ni 80                  0.23        2.45371
             Al 1  -- Ni 44                  0.21        2.45395
[...]
             Al 56 -- Al 64                  0.15        2.81912
             Al 53 -- Al 54                  0.17        2.82635
             Al 5  -- Al 10                  0.14        2.83337
             Al 47 -- Al 48                  0.13        2.84106
             Al 23 -- Al 40                  0.16        2.85143
             Al 56 -- Al 58                  0.17        2.85175
             Al 46 -- Al 47                  0.13        2.85465
             Al 23 -- Al 43                  0.16        2.86678
             Al 21 -- Al 32                  0.13        2.87035
             Al 21 -- Al 37                  0.21        2.87378
             Al 60 -- Al 64                  0.13        2.87812
             Al 35 -- Al 36                  0.14        2.88811
             Al 45 -- Al 46                  0.11        2.89059
             Al 23 -- Al 28                  0.14        2.91895
             Al 20 -- Al 37                  0.09        2.99609

Writing analysis data to castep.castep_bin

Writing model to castep.check

 A BibTeX formatted list of references used in this run has been written to
 castep.bib

Initialisation time =     12.90 s
Calculation time    =  31423.82 s
Finalisation time   =      3.32 s
Total time          =  31440.05 s

Overall parallel efficiency rating: Good (78%)

Data was distributed by:-
G-vector (48-way); efficiency rating: Good (79%)