 Run started: Wed, 26 Apr 2023 13:46:05 +0100

 Atomic calculation performed for Al: 1s2 2s2 2p6 3s2 3p1

 Converged in 52 iterations to an ae energy of -6606.982 eV

   | Pseudopotential Report - Date of generation 26-04-2023   |
   | Element: Al Ionic charge:  3.00 Level of theory: RPBE    |
   | Atomic Solver: Koelling-Harmon                           |
   |               Reference Electronic Structure             |
   |         Orbital         Occupation         Energy        |
   |            3s              2.000           -0.284        |
   |            3p              1.000           -0.100        |
   |                 Pseudopotential Definition               |
   |        Beta     l      e      Rc     scheme   norm       |
   |          1      0   -0.284   2.192     qc      0         |
   |          2      0    0.250   2.192     qc      0         |
   |          3      1   -0.100   2.192     qc      0         |
   |          4      1    0.250   2.192     qc      0         |
   |          5      2    0.000   2.000     qc      0         |
   |          6      2    0.250   2.000     qc      0         |
   |         loc     3    0.000   2.192     pn      0         |
   | Augmentation charge Rinner = 1.398                       |
   | Partial core correction Rc = 1.398                       |
   | "3|2.2|2.2|1.4|4|5|5|30:31:32U2U2"                       |
   |      Author: Chris J. Pickard, Cambridge University      |

 Atomic calculation performed for Ni: 1s2 2s2 2p6 3s2 3p6 3d8 4s2

 Converged in 109 iterations to an ae energy of -41381.414 eV

   | Pseudopotential Report - Date of generation 26-04-2023   |
   | Element: Ni Ionic charge: 10.00 Level of theory: RPBE    |
   | Atomic Solver: Koelling-Harmon                           |
   |               Reference Electronic Structure             |
   |         Orbital         Occupation         Energy        |
   |            3d              8.000           -0.324        |
   |            4s              2.000           -0.204        |
   |                 Pseudopotential Definition               |
   |        Beta     l      e      Rc     scheme   norm       |
   |          1      0   -0.204   2.401     qc      0         |
   |          2      0    0.250   2.401     qc      0         |
   |          3      1    0.000   2.401     qc      0         |
   |          4      1    0.250   2.401     qc      0         |
   |          5      2   -0.324   1.999     qc      0         |
   |          6      2    0.250   1.999     qc      0         |
   |         loc     3    0.000   2.401     pn      0         |
   | Augmentation charge Rinner = 1.001                       |
   | Partial core correction Rc = 1.001                       |
   | "3|2.4|2.4|1.0|8|9|10|40:41:32U2U2(qc=5.5)"              |
   |      Author: Chris J. Pickard, Cambridge University      |

 Pseudo atomic calculation performed for Al 3s2 3p1

 Converged in 13 iterations to a total energy of -107.6593 eV

 Pseudo atomic calculation performed for Ni 3d8 4s2

 Converged in 41 iterations to a total energy of -1369.7890 eV
 Calculation parallelised over 128 processes.
 Data is distributed by G-vector(128-way)

 ************************************ Title ************************************

 ***************************** General Parameters ******************************

 output verbosity                               : normal  (1)
 write checkpoint data to                       : castep.check
 type of calculation                            : geometry optimization
 stress calculation                             : off
 density difference calculation                 : off
 electron localisation func (ELF) calculation   : off
 Hirshfeld analysis                             : off
 polarisation (Berry phase) analysis            : off
 molecular orbital projected DOS                : off
 deltaSCF calculation                           : off
 unlimited duration calculation
 timing information                             : on
 write extra output files                       : on
 write final potential to formatted file        : off
 write final density to formatted file          : off
 write BibTeX reference list                    : on
 write OTFG pseudopotential files               : on
 write electrostatic potential file             : on
 write bands file                               : on
 checkpoint writing                             : both castep_bin and check files

 output         length unit                     : A
 output           mass unit                     : amu
 output           time unit                     : ps
 output         charge unit                     : e
 output           spin unit                     : hbar/2
 output         energy unit                     : eV
 output          force unit                     : eV/A
 output       velocity unit                     : A/ps
 output       pressure unit                     : GPa
 output     inv_length unit                     : 1/A
 output      frequency unit                     : cm-1
 output force constant unit                     : eV/A**2
 output         volume unit                     : A**3
 output   IR intensity unit                     : (D/A)**2/amu
 output         dipole unit                     : D
 output         efield unit                     : eV/A/e
 output        entropy unit                     : J/mol/K
 output    efield chi2 unit                     : pm/V

 wavefunctions paging                           : none
 random number generator seed                   : randomised (134607609)
 data distribution                              : optimal for this architecture
 optimization strategy                          : maximize speed(+++)

 *********************** Exchange-Correlation Parameters ***********************

 using functional                               : revised Perdew Burke Ernzerhof
 relativistic treatment                         : Koelling-Harmon
 DFT+D: Semi-empirical dispersion correction    : off

 ************************* Pseudopotential Parameters **************************

 pseudopotential representation                 : reciprocal space
 <beta|phi> representation                      : reciprocal space
 spin-orbit coupling                            : off

 **************************** Basis Set Parameters *****************************

 plane wave basis set cut-off                   :   900.0000   eV
 size of standard grid                          :     1.7500
 size of   fine   gmax                          :    26.8966   1/A
 finite basis set correction                    : none

 **************************** Electronic Parameters ****************************

 number of  electrons                           :  2130.
 net charge of system                           :  0.000
 treating system as non-spin-polarized
 number of bands                                :       1177

 ********************* Electronic Minimization Parameters **********************

 Method: Treating system as metallic with density mixing treatment of electrons,
         and number of  SD  steps               :          1
         and number of  CG  steps               :          4

 total energy / atom convergence tol.           : 0.1000E-05   eV
 eigen-energy convergence tolerance             : 0.2167E-06   eV
 max force / atom convergence tol.              : ignored
 convergence tolerance window                   :          3   cycles
 max. number of SCF cycles                      :        200
 number of fixed-spin iterations                :         10
 smearing scheme                                : Gaussian
 smearing width                                 : 0.2000       eV
 Fermi energy convergence tolerance             : 0.2721E-13   eV
 periodic dipole correction                     : NONE
 periodically dump wavefunctions to             : castep.wvfn
 dump wavefunctions every                       :          1   SCF cycles

 ************************** Density Mixing Parameters **************************

 density-mixing scheme                          : Pulay
 max. length of mixing history                  :         20
 charge density mixing amplitude                : 0.8000
 cut-off energy for mixing                      :  900.0       eV

 *********************** Population Analysis Parameters ************************

 Population analysis with cutoff                :  3.000       A
 Population analysis output                     : summary and pdos components

 ********************** Geometry Optimization Parameters ***********************

 optimization method                            : LBFGS
 max. no. of LBFGS updates                      : unbounded
 variable cell method                           : fixed basis quality
 max. number of steps                           :         30
 estimated bulk modulus                         :  500.0       GPa
 estimated <frequency>                          :  1668.       cm-1
 geom line minimiser                            : on
 with line minimiser tolerance                  :     0.4000
 total energy convergence tolerance             : 0.2000E-04   eV/atom
        max ionic |force| tolerance             : 0.5000E-01   eV/A
 max ionic |displacement| tolerance             : 0.1000E-02   A
   max |stress component| tolerance             : 0.1000       GPa
 convergence tolerance window                   :          2   steps
 backup results every                           :          5   steps
 write geom trajectory file                     : on

                                      Unit Cell
        Real Lattice(A)                      Reciprocal Lattice(1/A)
    14.4648280     0.0000000     0.0000000        0.434376773   0.000000000   0.000000000
     0.0000000    14.4648280     0.0000000        0.000000000   0.434376773   0.000000000
     0.0000000     0.0000000    14.4648280        0.000000000   0.000000000   0.434376773

                       Lattice parameters(A)       Cell Angles
                    a =     14.464828          alpha =   90.000000
                    b =     14.464828          beta  =   90.000000
                    c =     14.464828          gamma =   90.000000

                       Current cell volume =          3026.494030       A**3
                                   density =             4.316581   AMU/A**3
                                           =             7.167851     g/cm^3

                                     Cell Contents
                         Total number of ions in cell =  255
                      Total number of species in cell =    2
                        Max number of any one species =  195

            x  Element    Atom        Fractional coordinates of atoms  x
            x            Number           u          v          w      x
            x  Al           1         0.318111   0.309397   0.062332   x
            x  Al           2         0.565654   0.311194   0.061079   x
            x  Al           3         0.813997   0.311599   0.061083   x
            x  Al           4         0.317299   0.561250   0.063702   x
            x  Al           5         0.565000   0.560223   0.061518   x
[...]
     Ni   181      Pz                   0.319
     Ni   182      Dzz                  1.780
     Ni   182      Dzy                  1.663
     Ni   182      Dzx                  1.760
     Ni   182      Dxx-yy               1.796
     Ni   182      Dxy                  1.702
     Ni   182      S                    0.414
     Ni   182      Px                   0.307
     Ni   182      Py                   0.331
     Ni   182      Pz                   0.310
     Ni   183      Dzz                  1.789
     Ni   183      Dzy                  1.720
     Ni   183      Dzx                  1.696
     Ni   183      Dxx-yy               1.808
     Ni   183      Dxy                  1.686
     Ni   183      S                    0.402
     Ni   183      Px                   0.315
     Ni   183      Py                   0.299
     Ni   183      Pz                   0.305
     Ni   184      Dzz                  1.806
     Ni   184      Dzy                  1.670
     Ni   184      Dzx                  1.751
     Ni   184      Dxx-yy               1.805
     Ni   184      Dxy                  1.716
     Ni   184      S                    0.410
     Ni   184      Px                   0.269
     Ni   184      Py                   0.316
     Ni   184      Pz                   0.299
     Ni   185      Dzz                  1.838
     Ni   185      Dzy                  1.676
     Ni   185      Dzx                  1.715
     Ni   185      Dxx-yy               1.775
     Ni   185      Dxy                  1.773
     Ni   185      S                    0.422
     Ni   185      Px                   0.264
     Ni   185      Py                   0.286
     Ni   185      Pz                   0.367
     Ni   186      Dzz                  1.775
     Ni   186      Dzy                  1.749
     Ni   186      Dzx                  1.691
     Ni   186      Dxx-yy               1.809
     Ni   186      Dxy                  1.695
     Ni   186      S                    0.415
     Ni   186      Px                   0.329
     Ni   186      Py                   0.296
     Ni   186      Pz                   0.288
     Ni   187      Dzz                  1.829
     Ni   187      Dzy                  1.691
     Ni   187      Dzx                  1.680
     Ni   187      Dxx-yy               1.774
     Ni   187      Dxy                  1.745
     Ni   187      S                    0.416
     Ni   187      Px                   0.286
     Ni   187      Py                   0.287
     Ni   187      Pz                   0.333
     Ni   188      Dzz                  1.837
     Ni   188      Dzy                  1.678
     Ni   188      Dzx                  1.744
     Ni   188      Dxx-yy               1.786
     Ni   188      Dxy                  1.762
     Ni   188      S                    0.415
     Ni   188      Px                   0.247
     Ni   188      Py                   0.291
     Ni   188      Pz                   0.313
     Ni   189      Dzz                  1.801
     Ni   189      Dzy                  1.680
     Ni   189      Dzx                  1.771
     Ni   189      Dxx-yy               1.813
     Ni   189      Dxy                  1.714
     Ni   189      S                    0.414
     Ni   189      Px                   0.262
     Ni   189      Py                   0.331
     Ni   189      Pz                   0.284
     Ni   190      Dzz                  1.828
     Ni   190      Dzy                  1.676
     Ni   190      Dzx                  1.744
     Ni   190      Dxx-yy               1.795
     Ni   190      Dxy                  1.741
     Ni   190      S                    0.401
     Ni   190      Px                   0.254
     Ni   190      Py                   0.302
     Ni   190      Pz                   0.306
     Ni   191      Dzz                  1.826
     Ni   191      Dzy                  1.682
     Ni   191      Dzx                  1.718
     Ni   191      Dxx-yy               1.780
     Ni   191      Dxy                  1.744
     Ni   191      S                    0.412
     Ni   191      Px                   0.270
     Ni   191      Py                   0.293
     Ni   191      Pz                   0.316
     Ni   192      Dzz                  1.775
     Ni   192      Dzy                  1.779
     Ni   192      Dzx                  1.690
     Ni   192      Dxx-yy               1.819
     Ni   192      Dxy                  1.685
     Ni   192      S                    0.418
     Ni   192      Px                   0.346
     Ni   192      Py                   0.289
     Ni   192      Pz                   0.275
     Ni   193      Dzz                  1.770
     Ni   193      Dzy                  1.748
     Ni   193      Dzx                  1.700
     Ni   193      Dxx-yy               1.799
     Ni   193      Dxy                  1.708
     Ni   193      S                    0.421
     Ni   193      Px                   0.340
     Ni   193      Py                   0.294
     Ni   193      Pz                   0.298
     Ni   194      Dzz                  1.822
     Ni   194      Dzy                  1.680
     Ni   194      Dzx                  1.742
     Ni   194      Dxx-yy               1.794
     Ni   194      Dxy                  1.746
     Ni   194      S                    0.407
     Ni   194      Px                   0.253
     Ni   194      Py                   0.300
     Ni   194      Pz                   0.305
     Ni   195      Dzz                  1.826
     Ni   195      Dzy                  1.679
     Ni   195      Dzx                  1.715
     Ni   195      Dxx-yy               1.786
     Ni   195      Dxy                  1.745
     Ni   195      S                    0.411
     Ni   195      Px                   0.269
     Ni   195      Py                   0.290
     Ni   195      Pz                   0.315
                           Total:    2130.000

     Atomic Populations (Mulliken)
Species          Ion     s       p       d       f      Total   Charge (e)
  Al              1     0.843   1.909   0.000   0.000   2.752     0.248
  Al              2     0.845   1.906   0.000   0.000   2.751     0.249
  Al              3     0.843   1.909   0.000   0.000   2.751     0.249
  Al              4     0.845   1.907   0.000   0.000   2.752     0.248
  Al              5     0.845   1.904   0.000   0.000   2.749     0.251
  Al              6     0.843   1.914   0.000   0.000   2.757     0.243
  Al              7     0.850   1.914   0.000   0.000   2.765     0.235
  Al              8     0.844   1.904   0.000   0.000   2.748     0.252
  Al              9     0.843   1.905   0.000   0.000   2.748     0.252
  Al             10     0.843   1.912   0.000   0.000   2.755     0.245
  Al             11     0.844   1.905   0.000   0.000   2.749     0.251
  Al             12     0.843   1.916   0.000   0.000   2.760     0.240
  Al             13     0.844   1.901   0.000   0.000   2.745     0.255
  Al             14     0.844   1.903   0.000   0.000   2.748     0.252
  Al             15     0.843   1.914   0.000   0.000   2.757     0.243
  Al             16     0.852   1.915   0.000   0.000   2.766     0.234
  Al             17     0.844   1.899   0.000   0.000   2.743     0.257
  Al             18     0.842   1.909   0.000   0.000   2.751     0.249
  Al             19     0.866   1.916   0.000   0.000   2.783     0.217
  Al             20     0.843   1.900   0.000   0.000   2.743     0.257
  Al             21     0.843   1.914   0.000   0.000   2.757     0.243
  Al             22     0.843   1.909   0.000   0.000   2.752     0.248
  Al             23     0.843   1.906   0.000   0.000   2.749     0.251
  Al             24     0.836   1.895   0.000   0.000   2.730     0.270
  Al             25     0.893   1.863   0.000   0.000   2.756     0.244
  Al             26     0.846   1.906   0.000   0.000   2.752     0.248
  Al             27     0.843   1.909   0.000   0.000   2.752     0.248
  Al             28     0.896   1.867   0.000   0.000   2.763     0.237
  Al             29     0.847   1.903   0.000   0.000   2.750     0.250
  Al             30     0.846   1.911   0.000   0.000   2.757     0.243
  Al             31     0.850   1.913   0.000   0.000   2.763     0.237
  Al             32     0.844   1.903   0.000   0.000   2.747     0.253
  Al             33     0.841   1.905   0.000   0.000   2.745     0.255
  Al             34     0.849   1.930   0.000   0.000   2.779     0.221
  Al             35     0.843   1.901   0.000   0.000   2.745     0.255
  Al             36     0.841   1.914   0.000   0.000   2.754     0.246
  Al             37     0.844   1.909   0.000   0.000   2.753     0.247
  Al             38     0.846   1.903   0.000   0.000   2.749     0.251
  Al             39     0.844   1.916   0.000   0.000   2.760     0.240
  Al             40     0.839   1.893   0.000   0.000   2.732     0.268
  Al             41     0.848   1.906   0.000   0.000   2.754     0.246
  Al             42     0.839   1.896   0.000   0.000   2.735     0.265
  Al             43     0.845   1.907   0.000   0.000   2.752     0.248
  Al             44     0.845   1.903   0.000   0.000   2.748     0.252
  Al             45     0.845   1.910   0.000   0.000   2.755     0.245
  Al             46     0.842   1.911   0.000   0.000   2.752     0.248
  Al             47     0.844   1.903   0.000   0.000   2.747     0.253
  Al             48     0.842   1.911   0.000   0.000   2.753     0.247
  Al             49     0.849   1.943   0.000   0.000   2.792     0.208
  Al             50     0.845   1.940   0.000   0.000   2.786     0.214
  Al             51     0.852   1.956   0.000   0.000   2.808     0.192
  Al             52     0.853   1.951   0.000   0.000   2.804     0.196
  Al             53     0.892   1.880   0.000   0.000   2.772     0.228
  Al             54     0.876   1.944   0.000   0.000   2.820     0.180
  Al             55     0.861   1.948   0.000   0.000   2.808     0.192
  Al             56     0.868   1.954   0.000   0.000   2.821     0.179
  Al             57     0.861   1.938   0.000   0.000   2.800     0.200
  Al             58     0.879   1.943   0.000   0.000   2.822     0.178
  Al             59     0.892   1.886   0.000   0.000   2.778     0.222
  Al             60     0.868   1.956   0.000   0.000   2.824     0.176
[...]
  Ni            181     0.427   0.921   8.749   0.000  10.096    -0.096
  Ni            182     0.414   0.947   8.702   0.000  10.063    -0.063
  Ni            183     0.402   0.919   8.699   0.000  10.019    -0.019
  Ni            184     0.410   0.884   8.749   0.000  10.043    -0.043
  Ni            185     0.422   0.917   8.777   0.000  10.116    -0.116
  Ni            186     0.415   0.914   8.720   0.000  10.048    -0.048
  Ni            187     0.416   0.906   8.720   0.000  10.042    -0.042
  Ni            188     0.415   0.850   8.808   0.000  10.073    -0.073
  Ni            189     0.414   0.877   8.779   0.000  10.070    -0.070
  Ni            190     0.401   0.862   8.785   0.000  10.047    -0.047
  Ni            191     0.412   0.879   8.750   0.000  10.041    -0.041
  Ni            192     0.418   0.911   8.748   0.000  10.077    -0.077
  Ni            193     0.421   0.932   8.725   0.000  10.078    -0.078
  Ni            194     0.407   0.857   8.785   0.000  10.048    -0.048
  Ni            195     0.411   0.874   8.751   0.000  10.036    -0.036

                 Bond                   Population      Length (A)
             Al 19 -- Ni 57                  0.24        2.43332
             Al 60 -- Ni 153                 0.21        2.44502
             Al 58 -- Ni 165                 0.20        2.44582
             Al 53 -- Ni 171                 0.31        2.44916
             Al 51 -- Ni 152                 0.24        2.45571
             Al 57 -- Ni 166                 0.20        2.45738
             Al 57 -- Ni 178                 0.22        2.46011
             Al 53 -- Ni 170                 0.29        2.46185
             Al 60 -- Ni 152                 0.20        2.46734
             Al 58 -- Ni 149                 0.18        2.46762
             Al 58 -- Ni 163                 0.19        2.46796
             Al 34 -- Ni 101                 0.24        2.47110
             Al 60 -- Ni 155                 0.21        2.47377
             Al 55 -- Ni 35                  0.25        2.47503
             Al 19 -- Ni 56                  0.23        2.47826
             Al 16 -- Ni 39                  0.25        2.48100
             Al 55 -- Ni 153                 0.21        2.48101
             Al 52 -- Ni 178                 0.23        2.48143
             Al 54 -- Ni 117                 0.23        2.48153
             Al 19 -- Ni 19                  0.24        2.48334
             Al 7  -- Ni 128                 0.24        2.48523
            Ni 163 -- Ni 174                 0.12        2.48603
             Al 19 -- Ni 20                  0.22        2.48698
             Al 53 -- Ni 81                  0.28        2.48849
             Al 54 -- Ni 185                 0.20        2.48864
            Ni 171 -- Ni 181                 0.12        2.48880
             Al 57 -- Ni 177                 0.20        2.48906
             Al 58 -- Ni 164                 0.18        2.48922
             Al 58 -- Ni 150                 0.19        2.48938
             Al 31 -- Ni 92                  0.24        2.48979
             Al 54 -- Ni 183                 0.23        2.49149
            Ni 71  -- Ni 166                 0.11        2.49166
             Al 56 -- Ni 166                 0.19        2.49320
            Ni 27  -- Ni 152                 0.11        2.49366
            Ni 99  -- Ni 178                 0.14        2.49458
            Ni 45  -- Ni 165                 0.16        2.49511
             Al 34 -- Ni 91                  0.22        2.49552
             Al 16 -- Ni 11                  0.24        2.49585
             Al 19 -- Ni 46                  0.26        2.49640
            Ni 116 -- Ni 183                 0.10        2.49724
             Al 34 -- Ni 100                 0.22        2.49733
             Al 22 -- Ni 29                  0.25        2.49767
             Al 56 -- Ni 168                 0.18        2.49848
             Al 60 -- Ni 154                 0.23        2.49885
             Al 55 -- Ni 72                  0.22        2.50003
            Ni 164 -- Ni 174                 0.17        2.50012
             Al 56 -- Ni 182                 0.21        2.50106
             Al 54 -- Ni 189                 0.20        2.50193
            Ni 17  -- Ni 165                 0.14        2.50248
             Al 53 -- Ni 172                 0.30        2.50296
             Al 54 -- Ni 125                 0.20        2.50302
            Ni 26  -- Ni 152                 0.13        2.50305
             Al 56 -- Ni 181                 0.19        2.50315
             Al 57 -- Ni 154                 0.22        2.50331
             Al 51 -- Ni 18                  0.20        2.50353
             Al 16 -- Ni 47                  0.24        2.50385
            Ni 170 -- Ni 195                 0.02        2.50480
            Ni 53  -- Ni 165                 0.10        2.50538
            Ni 183 -- Ni 184                 0.11        2.50594
             Al 34 -- Ni 93                  0.23        2.50653
[...]
             Al 34 -- Al 56                  0.23        2.70154
             Al 28 -- Ni 46                  0.13        2.70633
             Al 51 -- Al 54                  0.22        2.70797
             Al 16 -- Al 58                  0.20        2.71823
             Al 58 -- Al 60                  0.21        2.71927
             Al 7  -- Al 60                  0.20        2.73229
             Al 53 -- Ni 117                 0.11        2.73579
             Al 31 -- Al 57                  0.20        2.73608
             Al 53 -- Al 54                  0.19        2.74323
             Al 57 -- Al 58                  0.19        2.75478
             Al 22 -- Al 56                  0.20        2.76518
             Al 52 -- Al 54                  0.18        2.78623
             Al 19 -- Al 57                  0.18        2.81750
             Al 19 -- Al 60                  0.16        2.83656
             Al 19 -- Al 58                  0.08        2.94962

Writing analysis data to castep.castep_bin

Writing model to castep.check

 A BibTeX formatted list of references used in this run has been written to
 castep.bib

Initialisation time =     20.54 s
Calculation time    =   8560.90 s
Finalisation time   =      4.24 s
Total time          =   8585.68 s

Overall parallel efficiency rating: Satisfactory (68%)

Data was distributed by:-
G-vector (128-way); efficiency rating: Good (70%)