 Run started: Wed, 08 Mar 2023 14:55:13 +0000

 Atomic calculation performed for Al: 1s2 2s2 2p6 3s2 3p1

 Converged in 52 iterations to an ae energy of -6606.982 eV

   | Pseudopotential Report - Date of generation  8-03-2023   |
   | Element: Al Ionic charge:  3.00 Level of theory: RPBE    |
   | Atomic Solver: Koelling-Harmon                           |
   |               Reference Electronic Structure             |
   |         Orbital         Occupation         Energy        |
   |            3s              2.000           -0.284        |
   |            3p              1.000           -0.100        |
   |                 Pseudopotential Definition               |
   |        Beta     l      e      Rc     scheme   norm       |
   |          1      0   -0.284   2.192     qc      0         |
   |          2      0    0.250   2.192     qc      0         |
   |          3      1   -0.100   2.192     qc      0         |
   |          4      1    0.250   2.192     qc      0         |
   |          5      2    0.000   2.000     qc      0         |
   |          6      2    0.250   2.000     qc      0         |
   |         loc     3    0.000   2.192     pn      0         |
   | Augmentation charge Rinner = 1.398                       |
   | Partial core correction Rc = 1.398                       |
   | "3|2.2|2.2|1.4|4|5|5|30:31:32U2U2"                       |
   |      Author: Chris J. Pickard, Cambridge University      |

 Atomic calculation performed for Ni: 1s2 2s2 2p6 3s2 3p6 3d8 4s2

 Converged in 109 iterations to an ae energy of -41381.414 eV

   | Pseudopotential Report - Date of generation  8-03-2023   |
   | Element: Ni Ionic charge: 10.00 Level of theory: RPBE    |
   | Atomic Solver: Koelling-Harmon                           |
   |               Reference Electronic Structure             |
   |         Orbital         Occupation         Energy        |
   |            3d              8.000           -0.324        |
   |            4s              2.000           -0.204        |
   |                 Pseudopotential Definition               |
   |        Beta     l      e      Rc     scheme   norm       |
   |          1      0   -0.204   2.401     qc      0         |
   |          2      0    0.250   2.401     qc      0         |
   |          3      1    0.000   2.401     qc      0         |
   |          4      1    0.250   2.401     qc      0         |
   |          5      2   -0.324   1.999     qc      0         |
   |          6      2    0.250   1.999     qc      0         |
   |         loc     3    0.000   2.401     pn      0         |
   | Augmentation charge Rinner = 1.001                       |
   | Partial core correction Rc = 1.001                       |
   | "3|2.4|2.4|1.0|8|9|10|40:41:32U2U2(qc=5.5)"              |
   |      Author: Chris J. Pickard, Cambridge University      |

 Pseudo atomic calculation performed for Al 3s2 3p1

 Converged in 13 iterations to a total energy of -107.6592 eV

 Pseudo atomic calculation performed for Ni 3d8 4s2

 Converged in 41 iterations to a total energy of -1369.7891 eV
 Calculation parallelised over 48 processes.
 Data is distributed by G-vector(48-way)

 ************************************ Title ************************************

 ***************************** General Parameters ******************************

 output verbosity                               : normal  (1)
 write checkpoint data to                       : castep.check
 type of calculation                            : geometry optimization
 stress calculation                             : off
 density difference calculation                 : off
 electron localisation func (ELF) calculation   : off
 Hirshfeld analysis                             : off
 molecular orbital projected DOS                : off
 deltaSCF calculation                           : off
 unlimited duration calculation
 timing information                             : on
 write extra output files                       : on
 write final potential to formatted file        : off
 write final density to formatted file          : off
 write BibTeX reference list                    : on
 write OTFG pseudopotential files               : on
 write electrostatic potential file             : on
 write bands file                               : on
 checkpoint writing                             : both castep_bin and check files

 output         length unit                     : A
 output           mass unit                     : amu
 output           time unit                     : ps
 output         charge unit                     : e
 output           spin unit                     : hbar/2
 output         energy unit                     : eV
 output          force unit                     : eV/A
 output       velocity unit                     : A/ps
 output       pressure unit                     : GPa
 output     inv_length unit                     : 1/A
 output      frequency unit                     : cm-1
 output force constant unit                     : eV/A**2
 output         volume unit                     : A**3
 output   IR intensity unit                     : (D/A)**2/amu
 output         dipole unit                     : D
 output         efield unit                     : eV/A/e
 output        entropy unit                     : J/mol/K
 output    efield chi2 unit                     : pm/V

 wavefunctions paging                           : none
 random number generator seed                   : randomised (145513391)
 data distribution                              : optimal for this architecture
 optimization strategy                          : maximize speed(+++)

 *********************** Exchange-Correlation Parameters ***********************

 using functional                               : revised Perdew Burke Ernzerhof
 relativistic treatment                         : Koelling-Harmon
 DFT+D: Semi-empirical dispersion correction    : off

 ************************* Pseudopotential Parameters **************************

 pseudopotential representation                 : reciprocal space
 <beta|phi> representation                      : reciprocal space
 spin-orbit coupling                            : off

 **************************** Basis Set Parameters *****************************

 plane wave basis set cut-off                   :   900.0000   eV
 size of standard grid                          :     1.7500
 size of   fine   gmax                          :    26.8966   1/A
 finite basis set correction                    : none

 **************************** Electronic Parameters ****************************

 number of  electrons                           :  2109.
 net charge of system                           :  0.000
 net spin   of system                           :  1.000
 number of  up  spins                           :  1055.
 number of down spins                           :  1054.
 treating system as spin-polarized
 number of bands                                :       1167

 ********************* Electronic Minimization Parameters **********************

 Method: Treating system as metallic with density mixing treatment of electrons,
         and number of  SD  steps               :          1
         and number of  CG  steps               :          4

 total energy / atom convergence tol.           : 0.1000E-05   eV
 eigen-energy convergence tolerance             : 0.2185E-06   eV
 max force / atom convergence tol.              : ignored
 convergence tolerance window                   :          3   cycles
 max. number of SCF cycles                      :        200
 number of fixed-spin iterations                :         10
 smearing scheme                                : Gaussian
 smearing width                                 : 0.2000       eV
 Fermi energy convergence tolerance             : 0.2721E-13   eV
 periodic dipole correction                     : NONE
 periodically dump wavefunctions to             : castep.wvfn
 dump wavefunctions every                       :          1   SCF cycles

 ************************** Density Mixing Parameters **************************

 density-mixing scheme                          : Pulay
 max. length of mixing history                  :         20
 charge density mixing amplitude                : 0.8000
   spin density mixing amplitude                :  2.000
 cut-off energy for mixing                      :  900.0       eV

 *********************** Population Analysis Parameters ************************

 Population analysis with cutoff                :  3.000       A
 Population analysis output                     : summary and pdos components

 ********************** Geometry Optimization Parameters ***********************

 optimization method                            : LBFGS
 max. no. of LBFGS updates                      : unbounded
 variable cell method                           : fixed basis quality
 max. number of steps                           :         30
 estimated bulk modulus                         :  500.0       GPa
 estimated <frequency>                          :  1668.       cm-1
 geom line minimiser                            : on
 with line minimiser tolerance                  :     0.4000
  with spin fully able to relax for all steps
 total energy convergence tolerance             : 0.2000E-04   eV/atom
        max ionic |force| tolerance             : 0.5000E-01   eV/A
 max ionic |displacement| tolerance             : 0.1000E-02   A
   max |stress component| tolerance             : 0.1000       GPa
 convergence tolerance window                   :          2   steps
 backup results every                           :          5   steps
 write geom trajectory file                     : on

                                      Unit Cell
        Real Lattice(A)                      Reciprocal Lattice(1/A)
    14.4648280     0.0000000     0.0000000        0.434376773   0.000000000   0.000000000
     0.0000000    14.4648280     0.0000000        0.000000000   0.434376773   0.000000000
     0.0000000     0.0000000    14.4648280        0.000000000   0.000000000   0.434376773

                       Lattice parameters(A)       Cell Angles
                    a =     14.464828          alpha =   90.000000
                    b =     14.464828          beta  =   90.000000
                    c =     14.464828          gamma =   90.000000

                       Current cell volume =          3026.494030       A**3
                                   density =             4.285146   AMU/A**3
                                           =             7.115653     g/cm^3

                                     Cell Contents
                         Total number of ions in cell =  255
                      Total number of species in cell =    2
                        Max number of any one species =  192

            x  Element    Atom        Fractional coordinates of atoms  x
            x            Number           u          v          w      x
            x  Al           1         0.569807   0.308622   0.065059   x
            x  Al           2         0.817951   0.309632   0.062664   x
[...]
                123   dn:     0.20   0.47   4.37   0.00   5.04
  Ni            124   up:     0.23   0.44   4.41   0.00   5.08    -0.16        0.00
                124   dn:     0.23   0.44   4.41   0.00   5.08
  Ni            125   up:     0.21   0.45   4.36   0.00   5.02    -0.05       -0.00
                125   dn:     0.21   0.45   4.36   0.00   5.02
  Ni            126   up:     0.22   0.43   4.39   0.00   5.04    -0.09        0.00
                126   dn:     0.22   0.43   4.39   0.00   5.04
  Ni            127   up:     0.21   0.39   4.37   0.00   4.97     0.06        0.00
                127   dn:     0.21   0.39   4.37   0.00   4.97
  Ni            128   up:     0.22   0.44   4.36   0.00   5.02    -0.04       -0.00
                128   dn:     0.22   0.44   4.36   0.00   5.02
  Ni            129   up:     0.21   0.45   4.38   0.00   5.04    -0.08        0.00
                129   dn:     0.21   0.45   4.38   0.00   5.04
  Ni            130   up:     0.23   0.44   4.39   0.00   5.06    -0.12       -0.00
                130   dn:     0.23   0.44   4.39   0.00   5.06
  Ni            131   up:     0.20   0.43   4.38   0.00   5.01    -0.02        0.00
                131   dn:     0.20   0.43   4.38   0.00   5.01
  Ni            132   up:     0.21   0.45   4.36   0.00   5.02    -0.04       -0.00
                132   dn:     0.21   0.45   4.36   0.00   5.02
  Ni            133   up:     0.21   0.46   4.39   0.00   5.07    -0.13       -0.00
                133   dn:     0.21   0.46   4.39   0.00   5.07
  Ni            134   up:     0.23   0.44   4.40   0.00   5.07    -0.15       -0.00
                134   dn:     0.23   0.44   4.40   0.00   5.07
  Ni            135   up:     0.23   0.43   4.39   0.00   5.04    -0.08        0.00
                135   dn:     0.23   0.43   4.39   0.00   5.04
  Ni            136   up:     0.20   0.45   4.38   0.00   5.04    -0.08       -0.00
                136   dn:     0.20   0.45   4.38   0.00   5.04
  Ni            137   up:     0.21   0.45   4.38   0.00   5.04    -0.07        0.00
                137   dn:     0.21   0.45   4.38   0.00   5.04
  Ni            138   up:     0.20   0.45   4.40   0.00   5.05    -0.10        0.00
                138   dn:     0.20   0.45   4.40   0.00   5.05
  Ni            139   up:     0.21   0.43   4.42   0.00   5.05    -0.10        0.00
                139   dn:     0.21   0.43   4.42   0.00   5.05
  Ni            140   up:     0.21   0.43   4.41   0.00   5.05    -0.10        0.00
                140   dn:     0.21   0.43   4.41   0.00   5.05
  Ni            141   up:     0.19   0.42   4.39   0.00   5.01    -0.02        0.00
                141   dn:     0.19   0.42   4.39   0.00   5.01
  Ni            142   up:     0.20   0.43   4.37   0.00   5.00    -0.01       -0.00
                142   dn:     0.20   0.43   4.37   0.00   5.00
  Ni            143   up:     0.21   0.46   4.38   0.00   5.05    -0.09       -0.00
                143   dn:     0.21   0.46   4.38   0.00   5.05
  Ni            144   up:     0.21   0.44   4.39   0.00   5.04    -0.08       -0.00
                144   dn:     0.21   0.44   4.39   0.00   5.04
  Ni            145   up:     0.21   0.43   4.39   0.00   5.03    -0.06        0.00
                145   dn:     0.21   0.43   4.39   0.00   5.03
  Ni            146   up:     0.21   0.43   4.39   0.00   5.03    -0.06        0.00
                146   dn:     0.21   0.43   4.39   0.00   5.03
  Ni            147   up:     0.23   0.44   4.40   0.00   5.07    -0.15       -0.00
                147   dn:     0.23   0.44   4.40   0.00   5.07
  Ni            148   up:     0.20   0.45   4.37   0.00   5.01    -0.03        0.00
                148   dn:     0.20   0.45   4.37   0.00   5.01
  Ni            149   up:     0.20   0.44   4.39   0.00   5.03    -0.05        0.00
                149   dn:     0.20   0.44   4.39   0.00   5.03
  Ni            150   up:     0.21   0.41   4.43   0.00   5.04    -0.09       -0.00
                150   dn:     0.21   0.41   4.43   0.00   5.04
  Ni            151   up:     0.21   0.42   4.41   0.00   5.04    -0.07       -0.00
                151   dn:     0.21   0.42   4.41   0.00   5.04
  Ni            152   up:     0.19   0.43   4.40   0.00   5.02    -0.03       -0.00
                152   dn:     0.19   0.43   4.40   0.00   5.02
  Ni            153   up:     0.23   0.43   4.42   0.00   5.07    -0.15       -0.00
                153   dn:     0.23   0.43   4.42   0.00   5.07
  Ni            154   up:     0.20   0.45   4.38   0.00   5.04    -0.08       -0.00
                154   dn:     0.20   0.45   4.38   0.00   5.04
  Ni            155   up:     0.21   0.44   4.39   0.00   5.04    -0.08       -0.00
                155   dn:     0.21   0.44   4.39   0.00   5.04
  Ni            156   up:     0.20   0.44   4.38   0.00   5.02    -0.04       -0.00
                156   dn:     0.20   0.44   4.38   0.00   5.02
  Ni            157   up:     0.20   0.46   4.36   0.00   5.02    -0.04       -0.00
                157   dn:     0.20   0.46   4.36   0.00   5.02
  Ni            158   up:     0.20   0.44   4.38   0.00   5.03    -0.06       -0.00
                158   dn:     0.20   0.44   4.38   0.00   5.03
  Ni            159   up:     0.21   0.44   4.40   0.00   5.05    -0.10        0.00
                159   dn:     0.21   0.44   4.40   0.00   5.05
  Ni            160   up:     0.20   0.44   4.40   0.00   5.05    -0.09       -0.00
                160   dn:     0.20   0.44   4.40   0.00   5.05
  Ni            161   up:     0.20   0.45   4.38   0.00   5.03    -0.06        0.00
                161   dn:     0.20   0.45   4.38   0.00   5.03
  Ni            162   up:     0.21   0.44   4.40   0.00   5.05    -0.09       -0.00
                162   dn:     0.21   0.44   4.40   0.00   5.05
  Ni            163   up:     0.20   0.44   4.38   0.00   5.02    -0.03        0.00
                163   dn:     0.20   0.44   4.38   0.00   5.02
  Ni            164   up:     0.20   0.45   4.37   0.00   5.02    -0.04       -0.00
                164   dn:     0.20   0.45   4.37   0.00   5.02
  Ni            165   up:     0.20   0.45   4.36   0.00   5.01    -0.03        0.00
                165   dn:     0.20   0.45   4.36   0.00   5.01
  Ni            166   up:     0.20   0.44   4.38   0.00   5.02    -0.03       -0.00
                166   dn:     0.20   0.44   4.38   0.00   5.02
  Ni            167   up:     0.20   0.45   4.37   0.00   5.03    -0.05       -0.00
                167   dn:     0.20   0.45   4.37   0.00   5.03
  Ni            168   up:     0.20   0.45   4.37   0.00   5.03    -0.05       -0.00
                168   dn:     0.20   0.45   4.37   0.00   5.03
  Ni            169   up:     0.21   0.45   4.42   0.00   5.07    -0.15       -0.00
                169   dn:     0.21   0.45   4.42   0.00   5.07
  Ni            170   up:     0.20   0.42   4.43   0.00   5.05    -0.10        0.00
                170   dn:     0.20   0.42   4.43   0.00   5.05
  Ni            171   up:     0.21   0.46   4.38   0.00   5.04    -0.08       -0.00
                171   dn:     0.21   0.46   4.38   0.00   5.04
  Ni            172   up:     0.20   0.45   4.38   0.00   5.03    -0.06        0.00
                172   dn:     0.20   0.45   4.38   0.00   5.03
  Ni            173   up:     0.21   0.45   4.38   0.00   5.03    -0.06        0.00
                173   dn:     0.21   0.45   4.38   0.00   5.03
  Ni            174   up:     0.20   0.45   4.40   0.00   5.05    -0.10        0.00
                174   dn:     0.20   0.45   4.40   0.00   5.05
  Ni            175   up:     0.21   0.45   4.39   0.00   5.05    -0.10       -0.00
                175   dn:     0.21   0.45   4.39   0.00   5.05
  Ni            176   up:     0.21   0.46   4.36   0.00   5.04    -0.08        0.00
                176   dn:     0.21   0.46   4.36   0.00   5.04
  Ni            177   up:     0.20   0.42   4.41   0.00   5.03    -0.06        0.00
                177   dn:     0.20   0.42   4.41   0.00   5.03
  Ni            178   up:     0.20   0.42   4.39   0.00   5.01    -0.02        0.00
                178   dn:     0.20   0.42   4.39   0.00   5.01
  Ni            179   up:     0.21   0.45   4.38   0.00   5.04    -0.08       -0.00
                179   dn:     0.21   0.45   4.38   0.00   5.04
  Ni            180   up:     0.21   0.46   4.37   0.00   5.03    -0.06       -0.00
                180   dn:     0.21   0.46   4.37   0.00   5.03
  Ni            181   up:     0.21   0.44   4.41   0.00   5.06    -0.12        0.00
                181   dn:     0.21   0.44   4.41   0.00   5.06
  Ni            182   up:     0.21   0.44   4.39   0.00   5.04    -0.08        0.00
                182   dn:     0.21   0.44   4.39   0.00   5.04
  Ni            183   up:     0.20   0.45   4.37   0.00   5.02    -0.04        0.00
                183   dn:     0.20   0.45   4.37   0.00   5.02
  Ni            184   up:     0.20   0.44   4.39   0.00   5.04    -0.07        0.00
                184   dn:     0.20   0.44   4.39   0.00   5.04
  Ni            185   up:     0.20   0.45   4.37   0.00   5.02    -0.03        0.00
                185   dn:     0.20   0.45   4.37   0.00   5.02
  Ni            186   up:     0.20   0.43   4.40   0.00   5.03    -0.05       -0.00
                186   dn:     0.20   0.43   4.40   0.00   5.03
  Ni            187   up:     0.20   0.44   4.38   0.00   5.02    -0.04        0.00
                187   dn:     0.20   0.44   4.38   0.00   5.02
  Ni            188   up:     0.21   0.44   4.39   0.00   5.04    -0.08       -0.00
                188   dn:     0.21   0.44   4.39   0.00   5.04
  Ni            189   up:     0.20   0.44   4.38   0.00   5.02    -0.04        0.00
                189   dn:     0.20   0.44   4.38   0.00   5.02
  Ni            190   up:     0.21   0.43   4.39   0.00   5.03    -0.05       -0.00
                190   dn:     0.21   0.43   4.39   0.00   5.03
  Ni            191   up:     0.20   0.43   4.40   0.00   5.04    -0.07        0.00
                191   dn:     0.20   0.43   4.40   0.00   5.04
  Ni            192   up:     0.20   0.45   4.38   0.00   5.03    -0.07        0.00
                192   dn:     0.20   0.45   4.38   0.00   5.03

                 Bond                   Population        Spin       Length (A)
             Al 41 -- Ni 65                  0.24        -0.00          2.42236
             Al 13 -- Ni 39                  0.24        -0.00          2.42809
             Al 58 -- Ni 169                 0.27        -0.00          2.42952
             Al 62 -- Ni 169                 0.23         0.00          2.43256
             Al 56 -- Ni 134                 0.29        -0.00          2.43404
             Al 56 -- Ni 126                 0.27        -0.00          2.43704
             Al 46 -- Ni 130                 0.28         0.00          2.44051
             Al 38 -- Ni 111                 0.24        -0.00          2.44254
             Al 53 -- Ni 47                  0.23        -0.00          2.44335
             Al 56 -- Ni 25                  0.27         0.00          2.44336
             Al 44 -- Ni 146                 0.18         0.00          2.44559
             Al 62 -- Ni 168                 0.24        -0.00          2.44727
             Al 59 -- Ni 115                 0.21        -0.00          2.44728
             Al 55 -- Ni 106                 0.19         0.00          2.44750
             Al 42 -- Ni 158                 0.21         0.00          2.45056
             Al 43 -- Ni 149                 0.20         0.00          2.45350
             Al 45 -- Ni 182                 0.20        -0.00          2.45376
             Al 50 -- Ni 110                 0.20        -0.00          2.45839
             Al 33 -- Ni 191                 0.21         0.00          2.45958
             Al 52 -- Ni 138                 0.21        -0.00          2.46154
             Al 54 -- Ni 114                 0.23         0.00          2.46219
            Ni 130 -- Ni 135                 0.16         0.00          2.46251
            Ni 155 -- Ni 160                 0.06         0.00          2.46350
             Al 23 -- Ni 68                  0.25         0.00          2.46383
             Al 44 -- Ni 170                 0.20         0.00          2.46467
             Al 34 -- Ni 71                  0.22        -0.00          2.46589
             Al 59 -- Ni 111                 0.22         0.00          2.46604
             Al 49 -- Ni 166                 0.19         0.00          2.46686
             Al 34 -- Ni 95                  0.22         0.00          2.46762
             Al 47 -- Ni 59                  0.20        -0.00          2.46874
             Al 56 -- Ni 147                 0.33        -0.00          2.46882
             Al 43 -- Ni 153                 0.22        -0.00          2.47023
             Al 62 -- Ni 171                 0.19        -0.00          2.47120
             Al 13 -- Ni 13                  0.24        -0.00          2.47130
             Al 55 -- Ni 135                 0.21         0.00          2.47153
             Al 46 -- Ni 123                 0.27        -0.00          2.47179
             Al 50 -- Ni 118                 0.20        -0.00          2.47246
             Al 46 -- Ni 124                 0.27         0.00          2.47355
             Al 53 -- Ni 136                 0.22        -0.00          2.47487
             Al 47 -- Ni 53                  0.20        -0.00          2.47519
             Al 5  -- Ni 86                  0.25        -0.00          2.47540
             Al 55 -- Ni 133                 0.21        -0.00          2.47577
             Al 52 -- Ni 159                 0.21         0.00          2.47650
             Al 59 -- Ni 113                 0.21        -0.00          2.47717
             Al 41 -- Ni 60                  0.21        -0.00          2.47830
             Al 13 -- Ni 31                  0.27        -0.00          2.47925
             Al 36 -- Ni 115                 0.22        -0.00          2.47976
             Al 13 -- Ni 38                  0.23        -0.00          2.48154
             Al 43 -- Ni 130                 0.19        -0.00          2.48188
             Al 17 -- Ni 69                  0.25        -0.00          2.48218
             Al 19 -- Ni 57                  0.26        -0.00          2.48281
             Al 41 -- Ni 66                  0.24        -0.00          2.48291
             Al 33 -- Ni 173                 0.19        -0.00          2.48348
            Ni 172 -- Ni 173                 0.08         0.00          2.48397
            Ni 117 -- Ni 119                 0.11        -0.00          2.48402
             Al 40 -- Ni 164                 0.25        -0.00          2.48450
             Al 58 -- Ni 99                  0.19         0.00          2.48499
             Al 59 -- Ni 114                 0.27        -0.00          2.48507
             Al 55 -- Ni 107                 0.21        -0.00          2.48552
             Al 55 -- Ni 134                 0.22        -0.00          2.48659
[...]
             Al 47 -- Al 62                  0.17         0.00          2.76646
             Al 53 -- Al 54                  0.18         0.00          2.77578
             Al 40 -- Al 51                  0.20         0.00          2.77679
             Al 15 -- Al 49                  0.19        -0.00          2.77767
             Al 19 -- Al 56                  0.17         0.00          2.77885
             Al 42 -- Ni 150                 0.11        -0.00          2.78831
             Al 43 -- Al 54                  0.16         0.00          2.78894
             Al 57 -- Al 63                  0.15        -0.00          2.79943
             Al 41 -- Al 53                  0.17         0.00          2.80133
             Al 44 -- Al 62                  0.15         0.00          2.81777
             Al 13 -- Al 59                  0.16         0.00          2.82919
             Al 13 -- Al 52                  0.17         0.00          2.84190
             Al 41 -- Al 54                  0.12         0.00          2.87789
             Al 46 -- Al 47                  0.13         0.00          2.88117
             Al 13 -- Al 55                  0.08         0.00          2.94623

Writing analysis data to castep.castep_bin

Writing model to castep.check

 A BibTeX formatted list of references used in this run has been written to
 castep.bib

Initialisation time =     14.38 s
Calculation time    =  24336.79 s
Finalisation time   =     13.30 s
Total time          =  24364.47 s

Overall parallel efficiency rating: Good (71%)

Data was distributed by:-
G-vector (48-way); efficiency rating: Good (72%)