 Run started: Tue, 11 Oct 2022 14:48:25 +0100

 Atomic calculation performed for Al: 1s2 2s2 2p6 3s2 3p1

 Converged in 52 iterations to an ae energy of -6606.982 eV

   | Pseudopotential Report - Date of generation 11-10-2022   |
   | Element: Al Ionic charge:  3.00 Level of theory: RPBE    |
   | Atomic Solver: Koelling-Harmon                           |
   |               Reference Electronic Structure             |
   |         Orbital         Occupation         Energy        |
   |            3s              2.000           -0.284        |
   |            3p              1.000           -0.100        |
   |                 Pseudopotential Definition               |
   |        Beta     l      e      Rc     scheme   norm       |
   |          1      0   -0.284   2.192     qc      0         |
   |          2      0    0.250   2.192     qc      0         |
   |          3      1   -0.100   2.192     qc      0         |
   |          4      1    0.250   2.192     qc      0         |
   |          5      2    0.000   2.000     qc      0         |
   |          6      2    0.250   2.000     qc      0         |
   |         loc     3    0.000   2.192     pn      0         |
   | Augmentation charge Rinner = 1.398                       |
   | Partial core correction Rc = 1.398                       |
   | "3|2.2|2.2|1.4|4|5|5|30:31:32U2U2"                       |
   |      Author: Chris J. Pickard, Cambridge University      |

 Atomic calculation performed for Ni: 1s2 2s2 2p6 3s2 3p6 3d8 4s2

 Converged in 109 iterations to an ae energy of -41381.414 eV

   | Pseudopotential Report - Date of generation 11-10-2022   |
   | Element: Ni Ionic charge: 10.00 Level of theory: RPBE    |
   | Atomic Solver: Koelling-Harmon                           |
   |               Reference Electronic Structure             |
   |         Orbital         Occupation         Energy        |
   |            3d              8.000           -0.324        |
   |            4s              2.000           -0.204        |
   |                 Pseudopotential Definition               |
   |        Beta     l      e      Rc     scheme   norm       |
   |          1      0   -0.204   2.401     qc      0         |
   |          2      0    0.250   2.401     qc      0         |
   |          3      1    0.000   2.401     qc      0         |
   |          4      1    0.250   2.401     qc      0         |
   |          5      2   -0.324   1.999     qc      0         |
   |          6      2    0.250   1.999     qc      0         |
   |         loc     3    0.000   2.401     pn      0         |
   | Augmentation charge Rinner = 1.001                       |
   | Partial core correction Rc = 1.001                       |
   | "3|2.4|2.4|1.0|8|9|10|40:41:32U2U2(qc=5.5)"              |
   |      Author: Chris J. Pickard, Cambridge University      |

 Pseudo atomic calculation performed for Al 3s2 3p1

 Converged in 13 iterations to a total energy of -107.6592 eV

 Pseudo atomic calculation performed for Ni 3d8 4s2

 Converged in 41 iterations to a total energy of -1369.7890 eV
 Calculation parallelised over 48 processes.
 Data is distributed by G-vector(48-way)

 ************************************ Title ************************************

 ***************************** General Parameters ******************************

 output verbosity                               : normal  (1)
 write checkpoint data to                       : castep.check
 type of calculation                            : geometry optimization
 stress calculation                             : off
 density difference calculation                 : off
 electron localisation func (ELF) calculation   : off
 Hirshfeld analysis                             : off
 molecular orbital projected DOS                : off
 deltaSCF calculation                           : off
 unlimited duration calculation
 timing information                             : on
 write extra output files                       : on
 write final potential to formatted file        : off
 write final density to formatted file          : off
 write BibTeX reference list                    : on
 write OTFG pseudopotential files               : on
 write electrostatic potential file             : on
 write bands file                               : on
 checkpoint writing                             : both castep_bin and check files

 output         length unit                     : A
 output           mass unit                     : amu
 output           time unit                     : ps
 output         charge unit                     : e
 output           spin unit                     : hbar/2
 output         energy unit                     : eV
 output          force unit                     : eV/A
 output       velocity unit                     : A/ps
 output       pressure unit                     : GPa
 output     inv_length unit                     : 1/A
 output      frequency unit                     : cm-1
 output force constant unit                     : eV/A**2
 output         volume unit                     : A**3
 output   IR intensity unit                     : (D/A)**2/amu
 output         dipole unit                     : D
 output         efield unit                     : eV/A/e
 output        entropy unit                     : J/mol/K
 output    efield chi2 unit                     : pm/V

 wavefunctions paging                           : none
 random number generator seed                   : randomised (144826009)
 data distribution                              : optimal for this architecture
 optimization strategy                          : maximize speed(+++)

 *********************** Exchange-Correlation Parameters ***********************

 using functional                               : revised Perdew Burke Ernzerhof
 relativistic treatment                         : Koelling-Harmon
 DFT+D: Semi-empirical dispersion correction    : off

 ************************* Pseudopotential Parameters **************************

 pseudopotential representation                 : reciprocal space
 <beta|phi> representation                      : reciprocal space
 spin-orbit coupling                            : off

 **************************** Basis Set Parameters *****************************

 plane wave basis set cut-off                   :   900.0000   eV
 size of standard grid                          :     1.7500
 size of   fine   gmax                          :    26.8966   1/A
 finite basis set correction                    : automatic
 number of sample energies                      :          3
           sample  spacing                      :     5.0000   eV

 **************************** Electronic Parameters ****************************

 number of  electrons                           :  2112.
 net charge of system                           :  0.000
 treating system as non-spin-polarized
 number of bands                                :       1168

 ********************* Electronic Minimization Parameters **********************

 Method: Treating system as metallic with density mixing treatment of electrons,
         and number of  SD  steps               :          1
         and number of  CG  steps               :          4

 total energy / atom convergence tol.           : 0.1000E-05   eV
 eigen-energy convergence tolerance             : 0.2192E-06   eV
 max force / atom convergence tol.              : ignored
 convergence tolerance window                   :          3   cycles
 max. number of SCF cycles                      :        360
 number of fixed-spin iterations                :         10
 smearing scheme                                : Gaussian
 smearing width                                 : 0.2000       eV
 Fermi energy convergence tolerance             : 0.2721E-13   eV
 periodic dipole correction                     : NONE

 ************************** Density Mixing Parameters **************************

 density-mixing scheme                          : Pulay
 max. length of mixing history                  :         20
 charge density mixing amplitude                : 0.8000
 cut-off energy for mixing                      :  900.0       eV

 *********************** Population Analysis Parameters ************************

 Population analysis with cutoff                :  3.000       A
 Population analysis output                     : summary and pdos components

 ********************** Geometry Optimization Parameters ***********************

 optimization method                            : LBFGS
 max. no. of LBFGS updates                      : unbounded
 preconditioned LBFGS is activated
 preconditioner type                            : EXP
     stabilization constant                     :     0.1000
     parameter A                                :     3.0000
     nearest neighbor distance                  : automatic
     cut-off distance                           : automatic
     parameter mu                               : automatic
 variable cell method                           : fixed basis quality
 max. number of steps                           :         30
 estimated bulk modulus                         :  500.0       GPa
 estimated <frequency>                          :  1668.       cm-1
 geom line minimiser                            : on
 with line minimiser tolerance                  :     0.4000
 total energy convergence tolerance             : 0.2000E-04   eV/atom
        max ionic |force| tolerance             : 0.5000E-01   eV/A
 max ionic |displacement| tolerance             : 0.1000E-02   A
   max |stress component| tolerance             : 0.1000       GPa
 convergence tolerance window                   :          2   steps
 backup results every                           :          5   steps
 write geom trajectory file                     : on

                                      Unit Cell
        Real Lattice(A)                      Reciprocal Lattice(1/A)
    14.4528000     0.0000000     0.0000000        0.434738273   0.000000000   0.000000000
     0.0000000    14.4528000     0.0000000        0.000000000   0.434738273   0.000000000
     0.0000000     0.0000000    14.4528000        0.000000000   0.000000000   0.434738273

                       Lattice parameters(A)       Cell Angles
                    a =     14.452800          alpha =   90.000000
                    b =     14.452800          beta  =   90.000000
                    c =     14.452800          gamma =   90.000000

                       Current cell volume =          3018.950406       A**3
                                   density =             4.304791   AMU/A**3
                                           =             7.148274     g/cm^3

                                     Cell Contents
                         Total number of ions in cell =  256
                      Total number of species in cell =    2
                        Max number of any one species =  192

            x  Element    Atom        Fractional coordinates of atoms  x
            x            Number           u          v          w      x
[...]
     Ni   177      Py                   0.288
     Ni   177      Pz                   0.308
     Ni   178      Dzz                  1.804
     Ni   178      Dzy                  1.681
     Ni   178      Dzx                  1.729
     Ni   178      Dxx-yy               1.793
     Ni   178      Dxy                  1.735
     Ni   178      S                    0.400
     Ni   178      Px                   0.280
     Ni   178      Py                   0.303
     Ni   178      Pz                   0.315
     Ni   179      Dzz                  1.816
     Ni   179      Dzy                  1.691
     Ni   179      Dzx                  1.686
     Ni   179      Dxx-yy               1.778
     Ni   179      Dxy                  1.731
     Ni   179      S                    0.407
     Ni   179      Px                   0.302
     Ni   179      Py                   0.294
     Ni   179      Pz                   0.322
     Ni   180      Dzz                  1.834
     Ni   180      Dzy                  1.758
     Ni   180      Dzx                  1.683
     Ni   180      Dxx-yy               1.797
     Ni   180      Dxy                  1.765
     Ni   180      S                    0.409
     Ni   180      Px                   0.306
     Ni   180      Py                   0.258
     Ni   180      Pz                   0.320
     Ni   181      Dzz                  1.797
     Ni   181      Dzy                  1.689
     Ni   181      Dzx                  1.748
     Ni   181      Dxx-yy               1.810
     Ni   181      Dxy                  1.729
     Ni   181      S                    0.404
     Ni   181      Px                   0.277
     Ni   181      Py                   0.316
     Ni   181      Pz                   0.300
     Ni   182      Dzz                  1.838
     Ni   182      Dzy                  1.716
     Ni   182      Dzx                  1.672
     Ni   182      Dxx-yy               1.771
     Ni   182      Dxy                  1.771
     Ni   182      S                    0.396
     Ni   182      Px                   0.290
     Ni   182      Py                   0.272
     Ni   182      Pz                   0.314
     Ni   183      Dzz                  1.817
     Ni   183      Dzy                  1.723
     Ni   183      Dzx                  1.668
     Ni   183      Dxx-yy               1.796
     Ni   183      Dxy                  1.724
     Ni   183      S                    0.397
     Ni   183      Px                   0.296
     Ni   183      Py                   0.290
     Ni   183      Pz                   0.300
     Ni   184      Dzz                  1.808
     Ni   184      Dzy                  1.706
     Ni   184      Dzx                  1.717
     Ni   184      Dxx-yy               1.804
     Ni   184      Dxy                  1.719
     Ni   184      S                    0.408
     Ni   184      Px                   0.291
     Ni   184      Py                   0.296
     Ni   184      Pz                   0.290
     Ni   185      Dzz                  1.845
     Ni   185      Dzy                  1.719
     Ni   185      Dzx                  1.689
     Ni   185      Dxx-yy               1.784
     Ni   185      Dxy                  1.768
     Ni   185      S                    0.417
     Ni   185      Px                   0.290
     Ni   185      Py                   0.271
     Ni   185      Pz                   0.338
     Ni   186      Dzz                  1.830
     Ni   186      Dzy                  1.760
     Ni   186      Dzx                  1.668
     Ni   186      Dxx-yy               1.810
     Ni   186      Dxy                  1.748
     Ni   186      S                    0.410
     Ni   186      Px                   0.337
     Ni   186      Py                   0.249
     Ni   186      Pz                   0.284
     Ni   187      Dzz                  1.799
     Ni   187      Dzy                  1.697
     Ni   187      Dzx                  1.777
     Ni   187      Dxx-yy               1.841
     Ni   187      Dxy                  1.682
     Ni   187      S                    0.391
     Ni   187      Px                   0.276
     Ni   187      Py                   0.328
     Ni   187      Pz                   0.259
     Ni   188      Dzz                  1.826
     Ni   188      Dzy                  1.759
     Ni   188      Dzx                  1.684
     Ni   188      Dxx-yy               1.822
     Ni   188      Dxy                  1.736
     Ni   188      S                    0.409
     Ni   188      Px                   0.300
     Ni   188      Py                   0.249
     Ni   188      Pz                   0.264
     Ni   189      Dzz                  1.823
     Ni   189      Dzy                  1.707
     Ni   189      Dzx                  1.709
     Ni   189      Dxx-yy               1.796
     Ni   189      Dxy                  1.753
     Ni   189      S                    0.408
     Ni   189      Px                   0.287
     Ni   189      Py                   0.284
     Ni   189      Pz                   0.303
     Ni   190      Dzz                  1.846
     Ni   190      Dzy                  1.680
     Ni   190      Dzx                  1.712
     Ni   190      Dxx-yy               1.779
     Ni   190      Dxy                  1.773
     Ni   190      S                    0.396
     Ni   190      Px                   0.263
     Ni   190      Py                   0.279
     Ni   190      Pz                   0.314
     Ni   191      Dzz                  1.794
     Ni   191      Dzy                  1.722
     Ni   191      Dzx                  1.736
     Ni   191      Dxx-yy               1.826
     Ni   191      Dxy                  1.716
     Ni   191      S                    0.405
     Ni   191      Px                   0.285
     Ni   191      Py                   0.303
     Ni   191      Pz                   0.291
     Ni   192      Dzz                  1.796
     Ni   192      Dzy                  1.768
     Ni   192      Dzx                  1.670
     Ni   192      Dxx-yy               1.818
     Ni   192      Dxy                  1.710
     Ni   192      S                    0.395
     Ni   192      Px                   0.304
     Ni   192      Py                   0.274
     Ni   192      Pz                   0.297
                           Total:    2112.000

     Atomic Populations (Mulliken)
Species          Ion     s      p      d      f     Total  Charge (e)
  Al              1     0.86   1.95   0.00   0.00   2.81     0.19
  Al              2     0.86   1.98   0.00   0.00   2.84     0.16
  Al              3     0.87   1.99   0.00   0.00   2.86     0.14
  Al              4     0.85   1.93   0.00   0.00   2.78     0.22
  Al              5     0.88   1.96   0.00   0.00   2.85     0.15
  Al              6     0.89   1.95   0.00   0.00   2.84     0.16
  Al              7     0.85   1.92   0.00   0.00   2.77     0.23
  Al              8     0.85   1.92   0.00   0.00   2.77     0.23
  Al              9     0.85   1.94   0.00   0.00   2.79     0.21
  Al             10     0.85   1.93   0.00   0.00   2.78     0.22
  Al             11     0.87   1.95   0.00   0.00   2.82     0.18
  Al             12     0.87   1.96   0.00   0.00   2.83     0.17
  Al             13     0.85   1.95   0.00   0.00   2.80     0.20
  Al             14     0.87   1.97   0.00   0.00   2.84     0.16
  Al             15     0.89   1.99   0.00   0.00   2.88     0.12
  Al             16     0.86   1.95   0.00   0.00   2.81     0.19
  Al             17     0.88   1.94   0.00   0.00   2.82     0.18
  Al             18     0.90   2.01   0.00   0.00   2.91     0.09
  Al             19     0.90   1.99   0.00   0.00   2.89     0.11
  Al             20     0.88   1.99   0.00   0.00   2.87     0.13
  Al             21     0.87   1.99   0.00   0.00   2.86     0.14
  Al             22     0.88   1.96   0.00   0.00   2.84     0.16
  Al             23     0.90   1.96   0.00   0.00   2.86     0.14
  Al             24     0.90   1.97   0.00   0.00   2.86     0.14
  Al             25     0.87   1.97   0.00   0.00   2.83     0.17
  Al             26     0.86   1.95   0.00   0.00   2.81     0.19
  Al             27     0.86   1.98   0.00   0.00   2.85     0.15
  Al             28     0.88   1.95   0.00   0.00   2.83     0.17
  Al             29     0.90   1.98   0.00   0.00   2.88     0.12
  Al             30     0.86   1.96   0.00   0.00   2.82     0.18
  Al             31     0.87   1.95   0.00   0.00   2.82     0.18
  Al             32     0.85   1.93   0.00   0.00   2.78     0.22
  Al             33     0.87   1.96   0.00   0.00   2.83     0.17
  Al             34     0.86   1.95   0.00   0.00   2.81     0.19
  Al             35     0.88   1.98   0.00   0.00   2.85     0.15
  Al             36     0.91   2.00   0.00   0.00   2.91     0.09
  Al             37     0.88   1.98   0.00   0.00   2.85     0.15
  Al             38     0.91   2.01   0.00   0.00   2.92     0.08
  Al             39     0.89   1.97   0.00   0.00   2.86     0.14
  Al             40     0.87   1.96   0.00   0.00   2.83     0.17
  Al             41     0.87   1.96   0.00   0.00   2.83     0.17
  Al             42     0.90   1.99   0.00   0.00   2.89     0.11
  Al             43     0.87   1.98   0.00   0.00   2.85     0.15
  Al             44     0.87   1.96   0.00   0.00   2.83     0.17
  Al             45     0.87   1.95   0.00   0.00   2.82     0.18
  Al             46     0.86   1.94   0.00   0.00   2.79     0.21
  Al             47     0.86   1.95   0.00   0.00   2.81     0.19
  Al             48     0.87   1.99   0.00   0.00   2.86     0.14
  Al             49     0.86   1.94   0.00   0.00   2.80     0.20
  Al             50     0.87   1.93   0.00   0.00   2.80     0.20
  Al             51     0.87   1.95   0.00   0.00   2.82     0.18
  Al             52     0.87   1.95   0.00   0.00   2.82     0.18
  Al             53     0.87   1.95   0.00   0.00   2.82     0.18
  Al             54     0.85   1.92   0.00   0.00   2.77     0.23
  Al             55     0.86   1.96   0.00   0.00   2.83     0.17
  Al             56     0.88   1.96   0.00   0.00   2.83     0.17
  Al             57     0.88   1.97   0.00   0.00   2.85     0.15
  Al             58     0.85   1.94   0.00   0.00   2.78     0.22
  Al             59     0.87   2.00   0.00   0.00   2.87     0.13
  Al             60     0.85   1.93   0.00   0.00   2.78     0.22
[...]
  Ni            178     0.40   0.90   8.74   0.00  10.04    -0.04
  Ni            179     0.41   0.92   8.70   0.00  10.03    -0.03
  Ni            180     0.41   0.88   8.84   0.00  10.13    -0.13
  Ni            181     0.40   0.89   8.77   0.00  10.07    -0.07
  Ni            182     0.40   0.88   8.77   0.00  10.04    -0.04
  Ni            183     0.40   0.89   8.73   0.00  10.01    -0.01
  Ni            184     0.41   0.88   8.75   0.00  10.04    -0.04
  Ni            185     0.42   0.90   8.81   0.00  10.12    -0.12
  Ni            186     0.41   0.87   8.82   0.00  10.10    -0.10
  Ni            187     0.39   0.86   8.80   0.00  10.05    -0.05
  Ni            188     0.41   0.81   8.83   0.00  10.05    -0.05
  Ni            189     0.41   0.87   8.79   0.00  10.07    -0.07
  Ni            190     0.40   0.85   8.79   0.00  10.04    -0.04
  Ni            191     0.41   0.88   8.79   0.00  10.08    -0.08
  Ni            192     0.39   0.88   8.76   0.00  10.03    -0.03

                 Bond                   Population      Length (A)
             Al 20 -- Ni 102                 0.21        2.38288
             Al 51 -- Ni 50                  0.22        2.39298
             Al 48 -- Ni 63                  0.20        2.39592
             Al 11 -- Ni 159                 0.22        2.40109
             Al 43 -- Ni 72                  0.22        2.40471
             Al 62 -- Ni 9                   0.21        2.40513
             Al 38 -- Ni 78                  0.25        2.40521
             Al 41 -- Ni 80                  0.24        2.40642
             Al 28 -- Ni 140                 0.23        2.40759
             Al 44 -- Ni 83                  0.19        2.40869
             Al 50 -- Ni 52                  0.22        2.40997
             Al 57 -- Ni 35                  0.21        2.41070
             Al 2  -- Ni 178                 0.20        2.41405
             Al 19 -- Ni 186                 0.22        2.41458
             Al 46 -- Ni 76                  0.22        2.41627
             Al 24 -- Ni 175                 0.23        2.41681
             Al 26 -- Ni 108                 0.21        2.41775
             Al 20 -- Ni 97                  0.20        2.41803
             Al 31 -- Ni 98                  0.24        2.41844
             Al 45 -- Ni 84                  0.21        2.41975
             Al 37 -- Ni 42                  0.22        2.42026
             Al 22 -- Ni 128                 0.22        2.42030
             Al 9  -- Ni 180                 0.25        2.42134
             Al 22 -- Ni 131                 0.21        2.42142
             Al 23 -- Ni 130                 0.21        2.42179
             Al 30 -- Ni 157                 0.20        2.42248
             Al 27 -- Ni 156                 0.22        2.42368
             Al 31 -- Ni 102                 0.21        2.42438
             Al 53 -- Ni 42                  0.22        2.42622
             Al 42 -- Ni 85                  0.25        2.42917
             Al 63 -- Ni 4                   0.23        2.42929
             Al 48 -- Ni 62                  0.22        2.42930
             Al 45 -- Ni 26                  0.20        2.42939
             Al 33 -- Ni 93                  0.24        2.43103
             Al 23 -- Ni 125                 0.21        2.43144
             Al 57 -- Ni 27                  0.23        2.43216
             Al 45 -- Ni 80                  0.22        2.43301
             Al 3  -- Ni 141                 0.19        2.43392
             Al 15 -- Ni 113                 0.25        2.43407
             Al 17 -- Ni 140                 0.25        2.43415
             Al 8  -- Ni 180                 0.21        2.43430
             Al 46 -- Ni 77                  0.22        2.43439
             Al 40 -- Ni 23                  0.20        2.43503
             Al 33 -- Ni 91                  0.20        2.43630
             Al 23 -- Ni 126                 0.24        2.43637
             Al 48 -- Ni 93                  0.23        2.43684
             Al 25 -- Ni 159                 0.23        2.43790
             Al 64 -- Ni 2                   0.22        2.43902
             Al 60 -- Ni 4                   0.23        2.43921
             Al 53 -- Ni 43                  0.24        2.43964
             Al 14 -- Ni 104                 0.23        2.44018
             Al 28 -- Ni 104                 0.25        2.44082
             Al 34 -- Ni 28                  0.20        2.44194
             Al 34 -- Ni 83                  0.23        2.44249
             Al 9  -- Ni 182                 0.20        2.44261
             Al 6  -- Ni 185                 0.24        2.44267
            Ni 152 -- Ni 157                 0.11        2.44304
             Al 36 -- Ni 39                  0.35        2.44358
             Al 51 -- Ni 49                  0.23        2.44394
             Al 29 -- Ni 111                 0.23        2.44400
[...]
             Al 46 -- Al 50                  0.16        2.79708
             Al 37 -- Al 38                  0.22        2.80611
             Al 2  -- Ni 186                 0.07        2.80697
             Al 49 -- Ni 88                  0.11        2.80709
             Al 36 -- Al 39                  0.13        2.81355
             Al 29 -- Al 50                  0.14        2.81709
             Al 33 -- Al 44                  0.14        2.81761
             Al 28 -- Al 30                  0.15        2.82792
             Al 62 -- Al 63                  0.15        2.82980
             Al 36 -- Al 45                  0.14        2.83301
             Al 17 -- Al 23                  0.15        2.85125
             Al 17 -- Al 44                  0.13        2.85294
             Al 6  -- Al 8                   0.11        2.91063
             Al 52 -- Al 63                  0.11        2.92711
             Al 19 -- Al 23                  0.09        2.99063

Writing analysis data to castep.castep_bin

Writing model to castep.check

 A BibTeX formatted list of references used in this run has been written to
 castep.bib

Initialisation time =     14.99 s
Calculation time    =  28898.93 s
Finalisation time   =      3.31 s
Total time          =  28917.23 s

Overall parallel efficiency rating: Good (78%)

Data was distributed by:-
G-vector (48-way); efficiency rating: Good (79%)