 Run started: Thu, 27 Apr 2023 01:22:15 +0100

 Atomic calculation performed for Al: 1s2 2s2 2p6 3s2 3p1

 Converged in 52 iterations to an ae energy of -6606.982 eV

   | Pseudopotential Report - Date of generation 27-04-2023   |
   | Element: Al Ionic charge:  3.00 Level of theory: RPBE    |
   | Atomic Solver: Koelling-Harmon                           |
   |               Reference Electronic Structure             |
   |         Orbital         Occupation         Energy        |
   |            3s              2.000           -0.284        |
   |            3p              1.000           -0.100        |
   |                 Pseudopotential Definition               |
   |        Beta     l      e      Rc     scheme   norm       |
   |          1      0   -0.284   2.192     qc      0         |
   |          2      0    0.250   2.192     qc      0         |
   |          3      1   -0.100   2.192     qc      0         |
   |          4      1    0.250   2.192     qc      0         |
   |          5      2    0.000   2.000     qc      0         |
   |          6      2    0.250   2.000     qc      0         |
   |         loc     3    0.000   2.192     pn      0         |
   | Augmentation charge Rinner = 1.398                       |
   | Partial core correction Rc = 1.398                       |
   | "3|2.2|2.2|1.4|4|5|5|30:31:32U2U2"                       |
   |      Author: Chris J. Pickard, Cambridge University      |

 Atomic calculation performed for Ni: 1s2 2s2 2p6 3s2 3p6 3d8 4s2

 Converged in 109 iterations to an ae energy of -41381.414 eV

   | Pseudopotential Report - Date of generation 27-04-2023   |
   | Element: Ni Ionic charge: 10.00 Level of theory: RPBE    |
   | Atomic Solver: Koelling-Harmon                           |
   |               Reference Electronic Structure             |
   |         Orbital         Occupation         Energy        |
   |            3d              8.000           -0.324        |
   |            4s              2.000           -0.204        |
   |                 Pseudopotential Definition               |
   |        Beta     l      e      Rc     scheme   norm       |
   |          1      0   -0.204   2.401     qc      0         |
   |          2      0    0.250   2.401     qc      0         |
   |          3      1    0.000   2.401     qc      0         |
   |          4      1    0.250   2.401     qc      0         |
   |          5      2   -0.324   1.999     qc      0         |
   |          6      2    0.250   1.999     qc      0         |
   |         loc     3    0.000   2.401     pn      0         |
   | Augmentation charge Rinner = 1.001                       |
   | Partial core correction Rc = 1.001                       |
   | "3|2.4|2.4|1.0|8|9|10|40:41:32U2U2(qc=5.5)"              |
   |      Author: Chris J. Pickard, Cambridge University      |

 Pseudo atomic calculation performed for Al 3s2 3p1

 Converged in 13 iterations to a total energy of -107.6593 eV

 Pseudo atomic calculation performed for Ni 3d8 4s2

 Converged in 41 iterations to a total energy of -1369.7890 eV
 Calculation parallelised over 128 processes.
 Data is distributed by G-vector(128-way)

 ************************************ Title ************************************

 ***************************** General Parameters ******************************

 output verbosity                               : normal  (1)
 write checkpoint data to                       : castep.check
 type of calculation                            : geometry optimization
 stress calculation                             : off
 density difference calculation                 : off
 electron localisation func (ELF) calculation   : off
 Hirshfeld analysis                             : off
 polarisation (Berry phase) analysis            : off
 molecular orbital projected DOS                : off
 deltaSCF calculation                           : off
 unlimited duration calculation
 timing information                             : on
 write extra output files                       : on
 write final potential to formatted file        : off
 write final density to formatted file          : off
 write BibTeX reference list                    : on
 write OTFG pseudopotential files               : on
 write electrostatic potential file             : on
 write bands file                               : on
 checkpoint writing                             : both castep_bin and check files

 output         length unit                     : A
 output           mass unit                     : amu
 output           time unit                     : ps
 output         charge unit                     : e
 output           spin unit                     : hbar/2
 output         energy unit                     : eV
 output          force unit                     : eV/A
 output       velocity unit                     : A/ps
 output       pressure unit                     : GPa
 output     inv_length unit                     : 1/A
 output      frequency unit                     : cm-1
 output force constant unit                     : eV/A**2
 output         volume unit                     : A**3
 output   IR intensity unit                     : (D/A)**2/amu
 output         dipole unit                     : D
 output         efield unit                     : eV/A/e
 output        entropy unit                     : J/mol/K
 output    efield chi2 unit                     : pm/V

 wavefunctions paging                           : none
 random number generator seed                   : randomised (12217704)
 data distribution                              : optimal for this architecture
 optimization strategy                          : maximize speed(+++)

 *********************** Exchange-Correlation Parameters ***********************

 using functional                               : revised Perdew Burke Ernzerhof
 relativistic treatment                         : Koelling-Harmon
 DFT+D: Semi-empirical dispersion correction    : off

 ************************* Pseudopotential Parameters **************************

 pseudopotential representation                 : reciprocal space
 <beta|phi> representation                      : reciprocal space
 spin-orbit coupling                            : off

 **************************** Basis Set Parameters *****************************

 plane wave basis set cut-off                   :   900.0000   eV
 size of standard grid                          :     1.7500
 size of   fine   gmax                          :    26.8966   1/A
 finite basis set correction                    : none

 **************************** Electronic Parameters ****************************

 number of  electrons                           :  2046.
 net charge of system                           :  0.000
 treating system as non-spin-polarized
 number of bands                                :       1135

 ********************* Electronic Minimization Parameters **********************

 Method: Treating system as metallic with density mixing treatment of electrons,
         and number of  SD  steps               :          1
         and number of  CG  steps               :          4

 total energy / atom convergence tol.           : 0.1000E-05   eV
 eigen-energy convergence tolerance             : 0.2247E-06   eV
 max force / atom convergence tol.              : ignored
 convergence tolerance window                   :          3   cycles
 max. number of SCF cycles                      :        200
 number of fixed-spin iterations                :         10
 smearing scheme                                : Gaussian
 smearing width                                 : 0.2000       eV
 Fermi energy convergence tolerance             : 0.2721E-13   eV
 periodic dipole correction                     : NONE
 periodically dump wavefunctions to             : castep.wvfn
 dump wavefunctions every                       :          1   SCF cycles

 ************************** Density Mixing Parameters **************************

 density-mixing scheme                          : Pulay
 max. length of mixing history                  :         20
 charge density mixing amplitude                : 0.8000
 cut-off energy for mixing                      :  900.0       eV

 *********************** Population Analysis Parameters ************************

 Population analysis with cutoff                :  3.000       A
 Population analysis output                     : summary and pdos components

 ********************** Geometry Optimization Parameters ***********************

 optimization method                            : LBFGS
 max. no. of LBFGS updates                      : unbounded
 variable cell method                           : fixed basis quality
 max. number of steps                           :         30
 estimated bulk modulus                         :  500.0       GPa
 estimated <frequency>                          :  1668.       cm-1
 geom line minimiser                            : on
 with line minimiser tolerance                  :     0.4000
 total energy convergence tolerance             : 0.2000E-04   eV/atom
        max ionic |force| tolerance             : 0.5000E-01   eV/A
 max ionic |displacement| tolerance             : 0.1000E-02   A
   max |stress component| tolerance             : 0.1000       GPa
 convergence tolerance window                   :          2   steps
 backup results every                           :          5   steps
 write geom trajectory file                     : on

                                      Unit Cell
        Real Lattice(A)                      Reciprocal Lattice(1/A)
    14.4648280     0.0000000     0.0000000        0.434376773   0.000000000   0.000000000
     0.0000000    14.4648280     0.0000000        0.000000000   0.434376773   0.000000000
     0.0000000     0.0000000    14.4648280        0.000000000   0.000000000   0.434376773

                       Lattice parameters(A)       Cell Angles
                    a =     14.464828          alpha =   90.000000
                    b =     14.464828          beta  =   90.000000
                    c =     14.464828          gamma =   90.000000

                       Current cell volume =          3026.494030       A**3
                                   density =             4.190844   AMU/A**3
                                           =             6.959059     g/cm^3

                                     Cell Contents
                         Total number of ions in cell =  255
                      Total number of species in cell =    2
                        Max number of any one species =  183

            x  Element    Atom        Fractional coordinates of atoms  x
            x            Number           u          v          w      x
            x  Al           1         0.943201   0.061916   0.691696   x
            x  Al           2         0.942219   0.313747   0.691566   x
            x  Al           3         0.946999   0.563308   0.685711   x
            x  Al           4         0.943709   0.811344   0.690589   x
            x  Al           5         0.941798   0.059967   0.939942   x
[...]
     Ni   169      Pz                   0.318
     Ni   170      Dzz                  1.850
     Ni   170      Dzy                  1.732
     Ni   170      Dzx                  1.672
     Ni   170      Dxx-yy               1.768
     Ni   170      Dxy                  1.775
     Ni   170      S                    0.420
     Ni   170      Px                   0.293
     Ni   170      Py                   0.303
     Ni   170      Pz                   0.329
     Ni   171      Dzz                  1.829
     Ni   171      Dzy                  1.801
     Ni   171      Dzx                  1.644
     Ni   171      Dxx-yy               1.791
     Ni   171      Dxy                  1.744
     Ni   171      S                    0.435
     Ni   171      Px                   0.318
     Ni   171      Py                   0.217
     Ni   171      Pz                   0.269
     Ni   172      Dzz                  1.792
     Ni   172      Dzy                  1.705
     Ni   172      Dzx                  1.738
     Ni   172      Dxx-yy               1.817
     Ni   172      Dxy                  1.712
     Ni   172      S                    0.409
     Ni   172      Px                   0.303
     Ni   172      Py                   0.317
     Ni   172      Pz                   0.279
     Ni   173      Dzz                  1.846
     Ni   173      Dzy                  1.719
     Ni   173      Dzx                  1.678
     Ni   173      Dxx-yy               1.781
     Ni   173      Dxy                  1.761
     Ni   173      S                    0.409
     Ni   173      Px                   0.287
     Ni   173      Py                   0.272
     Ni   173      Pz                   0.325
     Ni   174      Dzz                  1.830
     Ni   174      Dzy                  1.698
     Ni   174      Dzx                  1.702
     Ni   174      Dxx-yy               1.778
     Ni   174      Dxy                  1.766
     Ni   174      S                    0.433
     Ni   174      Px                   0.274
     Ni   174      Py                   0.268
     Ni   174      Pz                   0.311
     Ni   175      Dzz                  1.832
     Ni   175      Dzy                  1.665
     Ni   175      Dzx                  1.760
     Ni   175      Dxx-yy               1.793
     Ni   175      Dxy                  1.745
     Ni   175      S                    0.398
     Ni   175      Px                   0.253
     Ni   175      Py                   0.305
     Ni   175      Pz                   0.310
     Ni   176      Dzz                  1.831
     Ni   176      Dzy                  1.666
     Ni   176      Dzx                  1.730
     Ni   176      Dxx-yy               1.777
     Ni   176      Dxy                  1.761
     Ni   176      S                    0.407
     Ni   176      Px                   0.271
     Ni   176      Py                   0.299
     Ni   176      Pz                   0.321
     Ni   177      Dzz                  1.809
     Ni   177      Dzy                  1.770
     Ni   177      Dzx                  1.684
     Ni   177      Dxx-yy               1.810
     Ni   177      Dxy                  1.727
     Ni   177      S                    0.418
     Ni   177      Px                   0.336
     Ni   177      Py                   0.276
     Ni   177      Pz                   0.291
     Ni   178      Dzz                  1.839
     Ni   178      Dzy                  1.754
     Ni   178      Dzx                  1.676
     Ni   178      Dxx-yy               1.777
     Ni   178      Dxy                  1.771
     Ni   178      S                    0.418
     Ni   178      Px                   0.300
     Ni   178      Py                   0.258
     Ni   178      Pz                   0.309
     Ni   179      Dzz                  1.837
     Ni   179      Dzy                  1.717
     Ni   179      Dzx                  1.676
     Ni   179      Dxx-yy               1.786
     Ni   179      Dxy                  1.752
     Ni   179      S                    0.398
     Ni   179      Px                   0.298
     Ni   179      Py                   0.277
     Ni   179      Pz                   0.320
     Ni   180      Dzz                  1.786
     Ni   180      Dzy                  1.710
     Ni   180      Dzx                  1.770
     Ni   180      Dxx-yy               1.825
     Ni   180      Dxy                  1.698
     Ni   180      S                    0.412
     Ni   180      Px                   0.296
     Ni   180      Py                   0.339
     Ni   180      Pz                   0.264
     Ni   181      Dzz                  1.840
     Ni   181      Dzy                  1.737
     Ni   181      Dzx                  1.645
     Ni   181      Dxx-yy               1.784
     Ni   181      Dxy                  1.768
     Ni   181      S                    0.411
     Ni   181      Px                   0.309
     Ni   181      Py                   0.253
     Ni   181      Pz                   0.297
     Ni   182      Dzz                  1.823
     Ni   182      Dzy                  1.692
     Ni   182      Dzx                  1.757
     Ni   182      Dxx-yy               1.793
     Ni   182      Dxy                  1.741
     Ni   182      S                    0.401
     Ni   182      Px                   0.272
     Ni   182      Py                   0.298
     Ni   182      Pz                   0.310
     Ni   183      Dzz                  1.833
     Ni   183      Dzy                  1.672
     Ni   183      Dzx                  1.718
     Ni   183      Dxx-yy               1.768
     Ni   183      Dxy                  1.777
     Ni   183      S                    0.408
     Ni   183      Px                   0.283
     Ni   183      Py                   0.299
     Ni   183      Pz                   0.328
                           Total:    2046.000

     Atomic Populations (Mulliken)
Species          Ion     s       p       d       f      Total   Charge (e)
  Al              1     0.840   1.911   0.000   0.000   2.751     0.249
  Al              2     0.834   1.901   0.000   0.000   2.735     0.265
  Al              3     0.860   1.952   0.000   0.000   2.811     0.189
  Al              4     0.853   1.939   0.000   0.000   2.792     0.208
  Al              5     0.849   1.920   0.000   0.000   2.769     0.231
  Al              6     0.838   1.903   0.000   0.000   2.741     0.259
  Al              7     0.856   1.921   0.000   0.000   2.778     0.222
  Al              8     0.839   1.899   0.000   0.000   2.739     0.261
  Al              9     0.851   1.931   0.000   0.000   2.782     0.218
  Al             10     0.864   1.939   0.000   0.000   2.803     0.197
  Al             11     0.856   1.924   0.000   0.000   2.780     0.220
  Al             12     0.857   1.960   0.000   0.000   2.817     0.183
  Al             13     0.838   1.913   0.000   0.000   2.750     0.250
  Al             14     0.843   1.913   0.000   0.000   2.756     0.244
  Al             15     0.830   1.887   0.000   0.000   2.717     0.283
  Al             16     0.840   1.933   0.000   0.000   2.773     0.227
  Al             17     0.852   1.950   0.000   0.000   2.802     0.198
  Al             18     0.853   1.953   0.000   0.000   2.806     0.194
  Al             19     0.849   1.922   0.000   0.000   2.771     0.229
  Al             20     0.863   1.956   0.000   0.000   2.819     0.181
  Al             21     0.844   1.949   0.000   0.000   2.793     0.207
  Al             22     0.903   1.990   0.000   0.000   2.893     0.107
  Al             23     0.848   1.938   0.000   0.000   2.786     0.214
  Al             24     0.874   1.975   0.000   0.000   2.849     0.151
  Al             25     0.851   1.947   0.000   0.000   2.798     0.202
  Al             26     0.865   1.960   0.000   0.000   2.826     0.174
  Al             27     0.865   1.990   0.000   0.000   2.855     0.145
  Al             28     0.905   1.950   0.000   0.000   2.855     0.145
  Al             29     0.855   1.944   0.000   0.000   2.799     0.201
  Al             30     0.904   1.937   0.000   0.000   2.841     0.159
  Al             31     0.867   1.973   0.000   0.000   2.840     0.160
  Al             32     0.847   1.940   0.000   0.000   2.787     0.213
  Al             33     0.869   1.988   0.000   0.000   2.856     0.144
  Al             34     0.883   1.974   0.000   0.000   2.857     0.143
  Al             35     0.906   1.931   0.000   0.000   2.837     0.163
  Al             36     0.856   1.948   0.000   0.000   2.804     0.196
  Al             37     0.875   1.981   0.000   0.000   2.856     0.144
  Al             38     0.900   1.912   0.000   0.000   2.812     0.188
  Al             39     0.865   1.943   0.000   0.000   2.808     0.192
  Al             40     0.849   1.948   0.000   0.000   2.797     0.203
  Al             41     0.841   1.921   0.000   0.000   2.762     0.238
  Al             42     0.902   1.960   0.000   0.000   2.862     0.138
  Al             43     0.853   1.914   0.000   0.000   2.767     0.233
  Al             44     0.856   1.952   0.000   0.000   2.807     0.193
  Al             45     0.875   1.945   0.000   0.000   2.819     0.181
  Al             46     0.871   1.979   0.000   0.000   2.851     0.149
  Al             47     0.874   1.998   0.000   0.000   2.872     0.128
  Al             48     0.864   1.975   0.000   0.000   2.839     0.161
  Al             49     0.860   1.960   0.000   0.000   2.820     0.180
  Al             50     0.868   1.955   0.000   0.000   2.823     0.177
  Al             51     0.853   1.936   0.000   0.000   2.789     0.211
  Al             52     0.863   1.970   0.000   0.000   2.833     0.167
  Al             53     0.858   1.930   0.000   0.000   2.789     0.211
  Al             54     0.852   1.950   0.000   0.000   2.802     0.198
  Al             55     0.874   1.911   0.000   0.000   2.785     0.215
  Al             56     0.868   1.952   0.000   0.000   2.821     0.179
  Al             57     0.861   1.913   0.000   0.000   2.774     0.226
  Al             58     0.890   1.990   0.000   0.000   2.880     0.120
  Al             59     0.886   1.933   0.000   0.000   2.820     0.180
  Al             60     0.873   1.935   0.000   0.000   2.808     0.192
[...]
  Ni            169     0.407   0.851   8.849   0.000  10.107    -0.107
  Ni            170     0.420   0.925   8.797   0.000  10.142    -0.142
  Ni            171     0.435   0.803   8.809   0.000  10.047    -0.047
  Ni            172     0.409   0.899   8.764   0.000  10.072    -0.072
  Ni            173     0.409   0.883   8.784   0.000  10.076    -0.076
  Ni            174     0.433   0.853   8.773   0.000  10.060    -0.060
  Ni            175     0.398   0.867   8.795   0.000  10.061    -0.061
  Ni            176     0.407   0.891   8.764   0.000  10.061    -0.061
  Ni            177     0.418   0.903   8.800   0.000  10.121    -0.121
  Ni            178     0.418   0.868   8.818   0.000  10.104    -0.104
  Ni            179     0.398   0.894   8.769   0.000  10.062    -0.062
  Ni            180     0.412   0.899   8.789   0.000  10.101    -0.101
  Ni            181     0.411   0.859   8.775   0.000  10.044    -0.044
  Ni            182     0.401   0.880   8.806   0.000  10.087    -0.087
  Ni            183     0.408   0.910   8.770   0.000  10.088    -0.088

                 Bond                   Population      Length (A)
             Al 53 -- Ni 36                  0.26        2.39230
             Al 55 -- Ni 28                  0.22        2.40932
             Al 10 -- Ni 116                 0.23        2.41308
             Al 72 -- Ni 23                  0.20        2.41351
             Al 60 -- Ni 24                  0.24        2.41835
             Al 59 -- Ni 69                  0.20        2.42107
             Al 45 -- Ni 102                 0.21        2.42166
             Al 4  -- Ni 59                  0.25        2.42605
             Al 20 -- Ni 50                  0.24        2.42621
             Al 29 -- Ni 154                 0.20        2.42908
             Al 60 -- Ni 23                  0.21        2.42940
             Al 55 -- Ni 37                  0.25        2.42952
             Al 21 -- Ni 54                  0.24        2.43150
             Al 39 -- Ni 110                 0.17        2.43287
             Al 43 -- Ni 106                 0.21        2.43520
             Al 43 -- Ni 151                 0.27        2.43627
             Al 71 -- Ni 37                  0.23        2.43777
             Al 4  -- Ni 60                  0.22        2.43847
             Al 45 -- Ni 109                 0.25        2.43983
             Al 20 -- Ni 49                  0.20        2.44009
             Al 21 -- Ni 179                 0.20        2.44156
             Al 24 -- Ni 50                  0.22        2.44214
             Al 32 -- Ni 139                 0.25        2.44259
             Al 16 -- Ni 183                 0.19        2.44329
             Al 42 -- Ni 76                  0.25        2.44479
             Al 42 -- Ni 75                  0.20        2.44605
             Al 24 -- Ni 178                 0.22        2.44614
             Al 22 -- Ni 53                  0.18        2.44736
             Al 10 -- Ni 5                   0.21        2.44757
             Al 9  -- Ni 107                 0.23        2.44761
             Al 48 -- Ni 43                  0.20        2.44858
             Al 72 -- Ni 33                  0.20        2.44886
             Al 69 -- Ni 23                  0.21        2.44944
             Al 30 -- Ni 164                 0.28        2.44944
             Al 22 -- Ni 168                 0.26        2.45030
             Al 35 -- Ni 110                 0.27        2.45122
             Al 21 -- Ni 133                 0.23        2.45153
             Al 52 -- Ni 97                  0.19        2.45177
             Al 31 -- Ni 149                 0.22        2.45240
             Al 45 -- Ni 101                 0.23        2.45285
             Al 6  -- Ni 37                  0.26        2.45316
             Al 61 -- Ni 65                  0.20        2.45324
             Al 72 -- Ni 21                  0.20        2.45328
             Al 35 -- Ni 170                 0.27        2.45453
             Al 36 -- Ni 116                 0.24        2.45526
             Al 7  -- Ni 83                  0.21        2.45600
             Al 28 -- Ni 157                 0.19        2.45627
             Al 36 -- Ni 166                 0.23        2.45643
             Al 24 -- Ni 148                 0.17        2.45647
             Al 64 -- Ni 28                  0.22        2.45739
            Ni 125 -- Ni 130                 0.05        2.45754
             Al 22 -- Ni 119                 0.22        2.45776
             Al 57 -- Ni 88                  0.23        2.45829
             Al 27 -- Ni 42                  0.20        2.45873
             Al 17 -- Ni 182                 0.19        2.45973
             Al 52 -- Ni 126                 0.22        2.46057
             Al 3  -- Ni 14                  0.22        2.46060
             Al 9  -- Ni 141                 0.21        2.46115
             Al 18 -- Ni 54                  0.21        2.46169
             Al 39 -- Ni 123                 0.21        2.46280
[...]
             Al 42 -- Al 55                  0.18        2.79830
             Al 7  -- Al 51                  0.20        2.79924
             Al 31 -- Al 44                  0.16        2.79979
             Al 56 -- Al 57                  0.16        2.80418
             Al 7  -- Al 64                  0.17        2.81194
             Al 29 -- Al 69                  0.16        2.81903
             Al 10 -- Al 45                  0.15        2.83647
             Al 9  -- Al 45                  0.13        2.83903
             Al 43 -- Al 59                  0.14        2.85178
             Al 55 -- Al 59                  0.16        2.85667
             Al 10 -- Al 39                  0.14        2.86440
             Al 59 -- Al 60                  0.16        2.88793
             Al 57 -- Al 72                  0.12        2.90100
             Al 55 -- Al 60                  0.11        2.93219
             Al 42 -- Al 59                  0.13        2.93444

Writing analysis data to castep.castep_bin

Writing model to castep.check

 A BibTeX formatted list of references used in this run has been written to
 castep.bib

Initialisation time =     28.06 s
Calculation time    =  12884.98 s
Finalisation time   =      5.73 s
Total time          =  12918.76 s

Overall parallel efficiency rating: Satisfactory (65%)

Data was distributed by:-
G-vector (128-way); efficiency rating: Satisfactory (67%)